%chk=i2.chk
%mem=616Gb
%nprocshared=24
#P  UMN15/genecp scf=(maxcyc=500) opt freq scrf=(smd,solvent=DiChloroEthane)  

Opt

0 1
 C                  5.76063400   -0.60382900    0.11402100
 C                  6.80665500   -0.53181100   -0.81326900
 C                  8.00046400   -1.21305100   -0.57160400
 C                  8.14830300   -1.97128500    0.59259800
 C                  7.10073300   -2.05125800    1.51425200
 C                  5.90621200   -1.37000100    1.27786000
 C                  2.09020100   -0.23211400    0.24072500
 C                  1.47886700   -0.19190200   -1.03365000
 C                  1.34279100   -0.05631300    1.42919000
 H                  6.68164900    0.05552200   -1.72714500
 H                  8.81391000   -1.15771000   -1.29809900
 H                  9.08145100   -2.50756800    0.77947400
 H                  7.21232900   -2.65051600    2.42040800
 H                  5.07604000   -1.43715400    1.98456900
 O                  0.10780600    0.20424400    1.49222600
 O                  0.24970400   -0.00389300   -1.24853800
 O                  2.30624600   -0.31199100   -2.06621600
 O                  2.05281900   -0.11065500    2.54545700
 C                  1.76712700   -0.10945100   -3.37077100
 C                  1.39063100    0.15527500    3.77817500
 H                  2.59847500   -0.24408300   -4.07095500
 H                  1.35649900    0.90726300   -3.46447200
 H                  0.97174000   -0.83351900   -3.58523900
 H                  2.16192300    0.10547300    4.55475500
 H                  0.61138600   -0.59485900    3.97108900
 H                  0.93146200    1.15482400    3.76743400
 O                 -3.15628000    0.81589500    1.38894900
 O                 -2.67326600    0.72628300   -1.68540900
 O                 -0.36935200   -2.35636500    0.40078700
 S                 -1.27129300   -3.11105500   -0.51148500
 S                 -3.67395000   -0.41215700    2.06755400
 S                 -2.31520900    2.15499500   -1.42831800
 O                 -2.12660000   -2.08183400   -1.18638800
 O                 -1.93028200   -4.28861400   -0.00553700
 O                 -2.72991100   -1.49943600    1.67435300
 O                 -4.06003500   -0.30907600    3.44933500
 O                 -1.42561800    2.15354900   -0.23557800
 O                 -1.88098200    2.94427800   -2.55892700
 C                 -3.91020900    2.93620900   -0.85072000
 C                 -5.18886800   -0.80152400    1.10189400
 C                 -0.17028200   -3.72999100   -1.85277400
 F                 -3.69104800    3.59843500    0.26777700
 F                 -4.82657700    2.01057400   -0.65051700
 F                 -4.33070000    3.77256700   -1.78148700
 F                 -4.84780400   -0.90061500   -0.17441600
 F                 -6.07460500    0.16397100    1.25142200
 F                 -5.70116600   -1.94446200    1.51396100
 F                  0.69594200   -2.79332900   -2.20479700
 F                 -0.90244800   -4.06444300   -2.89897700
 F                  0.48687600   -4.78747400   -1.41521800
 C                  4.47557300    0.14725000   -0.13534500
 H                  4.35534900    0.35724900   -1.21113300
 C                  4.55255300    1.59629400    0.52873300
 C                  5.73299300    2.31826100    0.02389600
 C                  4.63495600    1.48713400    1.99173500
 C                  1.18964800    3.26670000    0.41599700
 C                  2.26797300    3.15546400   -1.71932100
 C                  1.13958100    3.49591900   -0.94738100
 H                  0.35922100    3.50196500    1.08057000
 H                  2.30674000    3.33467500   -2.79562700
 H                  0.25459400    3.91509100   -1.42848500
 N                  6.66603500    2.87008200   -0.37830800
 N                  4.72865900    1.38306200    3.13977200
 N                  3.34267800    2.36766400    0.10181900
 N                  3.33942500    2.59484500   -1.19347600
 C                  2.34164300    2.67614600    0.93268000
 H                  2.46839700    2.44365500    1.99173700
 Lu                -1.49766100   -0.24001600    0.07597100
 O                  3.42289100   -0.58951600    0.39214400

H     0
S    3   1.00
     13.0107010              0.19682158D-01
      1.9622572              0.13796524
      0.44453796             0.47831935
S    1   1.00
      0.12194962             1.0000000
P    1   1.00
      0.8000000              1.0000000
****
C     0
S    5   1.00
   1238.4016938              0.54568832082D-02
    186.29004992             0.40638409211D-01
     42.251176346            0.18025593888
     11.676557932            0.46315121755
      3.5930506482           0.44087173314
S    1   1.00
      0.40245147363          1.0000000
S    1   1.00
      0.13090182668          1.0000000
P    3   1.00
      9.4680970621           0.38387871728D-01
      2.0103545142           0.21117025112
      0.54771004707          0.51328172114
P    1   1.00
      0.15268613795          1.0000000
D    1   1.00
      0.8000000              1.0000000
****
N     0
S    5   1.00
   1712.8415853             -0.53934125305D-02
    257.64812677            -0.40221581118D-01
     58.458245853           -0.17931144990
     16.198367905           -0.46376317823
      5.0052600809          -0.44171422662
S    1   1.00
      0.58731856571          1.0000000
S    1   1.00
      0.18764592253          1.0000000
P    3   1.00
     13.571470233           -0.40072398852D-01
      2.9257372874          -0.21807045028
      0.79927750754         -0.51294466049
P    1   1.00
      0.21954348034          1.0000000
D    1   1.00
      1.0000000              1.0000000
****
O     0
S    5   1.00
   2266.1767785             -0.53431809926D-02
    340.87010191            -0.39890039230D-01
     77.363135167           -0.17853911985
     21.479644940           -0.46427684959
      6.6589433124          -0.44309745172
S    1   1.00
      0.80975975668          1.0000000
S    1   1.00
      0.25530772234          1.0000000
P    3   1.00
     17.721504317            0.43394573193D-01
      3.8635505440           0.23094120765
      1.0480920883           0.51375311064
P    1   1.00
      0.27641544411          1.0000000
D    1   1.00
      1.2000000              1.0000000
****
F     0
S    5   1.00
   2894.8325990             -0.53408255515D-02
    435.41939120            -0.39904258866D-01
     98.843328866           -0.17912768038
     27.485198001           -0.46758090825
      8.5405498171          -0.44653131020
S    1   1.00
      1.0654578038           1.0000000
S    1   1.00
      0.33247346748          1.0000000
P    3   1.00
     22.696633924           -0.45212874436D-01
      4.9872339257          -0.23754317067
      1.3491613954          -0.51287353587
P    1   1.00
      0.34829881977          1.0000000
D    1   1.00
      1.4000000              1.0000000
****
S     0
S    5   1.00
   9184.9303010             -0.22294387756D-02
   1381.5105503             -0.16683029937D-01
    313.87147580            -0.75262436116D-01
     88.053870623           -0.19376827038
     27.039914905           -0.17718020803
S    3   1.00
     45.648731303           -0.10736062573
      4.9664522326           0.65066293018
      2.0116242047           0.59712155354
S    1   1.00
      0.35661077013          1.0000000
S    1   1.00
      0.13507221477          1.0000000
P    5   1.00
    261.98233439            -0.92729929822D-02
     61.306894736           -0.66547669241D-01
     19.103729887           -0.24828595903
      6.6567720378          -0.48703847402
      2.3959635161          -0.39337850312
P    1   1.00
      0.61776161679          1.0000000
P    1   1.00
      0.16993376871          1.0000000
D    1   1.00
      0.5500000              1.0000000
****
Lu     0
S    5   1.00
  95169.767000               0.22000000000D-04
  15488.403000               0.14500000000D-03
   3776.2335000              0.65100000000D-03
   1079.0501000              0.20380000000D-02
    268.95380000             0.51270000000D-02
S    1   1.00
     63.467900000            1.0000000
S    1   1.00
     45.133200000            1.0000000
S    1   1.00
     21.456800000            1.0000000
S    1   1.00
      5.3483000000           1.0000000
S    1   1.00
      2.6778000000           1.0000000
S    1   1.00
      1.0287000000           1.0000000
S    1   1.00
      0.44080000000          1.0000000
S    1   1.00
      0.79100000000D-01      1.0000000
S    1   1.00
      0.31300000000D-01      1.0000000
P    3   1.00
     12.333733920           -0.15313031066
     11.080331415           -0.20300664852
      2.0341747228          -0.19458361263
P    6   1.00
   1500.5317313             -0.10192569555D-02
    382.39748937            -0.59476212135D-02
    132.99969628            -0.16265160929D-01
     46.110032419           -0.35623845839D-01
     15.583529011            0.23709171074
      5.7856677022          -0.30670977844
P    1   1.00
      3.7823361008           1.0000000
P    1   1.00
      1.3682592248           1.0000000
P    1   1.00
      0.57288205601          1.0000000
P    1   1.00
      0.22793165135          1.0000000
P    1   1.00
      0.81403917986D-01      1.0000000
P    1   1.00
      0.29091071778D-01      1.0000000
D    6   1.00
    484.52750000             0.22860000000D-02
    146.66550000             0.18629000000D-01
     56.377900000            0.74088000000D-01
     23.671100000            0.16155400000
      9.4401000000           0.30809100000
      4.3712000000           0.44833400000
D    1   1.00
      1.9580000000           1.0000000
D    1   1.00
      0.72720000000          1.0000000
D    1   1.00
      0.24600000000          1.0000000
D    1   1.00
      0.74400000000D-01      1.0000000
F    5   1.00
    175.15590000             0.41020000000D-02
     62.890900000            0.39086000000D-01
     28.362400000            0.14704400000
     13.247800000            0.27109200000
      6.1440000000           0.34566500000
F    1   1.00
      2.7623000000           1.0000000
F    1   1.00
      1.1574000000           1.0000000
F    1   1.00
      0.42440000000          1.0000000
G    1   1.00
      0.70090000000          1.0000000
****

Lu     0
Lu-ECP     5     28
h potential
  1
2      1.00000000             0.00000000
s-h potential
  1
2     35.16209700           989.99558400
p-h potential
  1
2     19.46440200           278.86565200
d-h potential
  1
2     10.00686500            71.00917800
f-h potential
  1
2     23.51793200           -47.40589000
g-h potential
  1
2     29.41223800           -35.55714600


