%chk=i3-major.chk
%mem=616Gb
%nprocshared=24
#P  UMN15/genecp scf=(maxcyc=500) freq scrf=(smd,solvent=DiChloroEthane)  

freq

0 2
C                 -4.7237090000      1.3650750000      0.7547670000
C                 -5.5678950000      2.1254980000     -0.0634550000
C                 -6.2342990000      3.2315620000      0.4634880000
C                 -6.0504970000      3.5833240000      1.8031400000
C                 -5.2003390000      2.8295750000      2.6162850000
C                 -4.5359280000      1.7177830000      2.0969480000
C                 -1.9612690000     -1.0495290000      0.3062460000
C                 -1.4466510000     -0.5288500000     -1.0854640000
C                 -0.8123160000     -1.0492570000      1.3809030000
H                 -5.6958660000      1.8523490000     -1.1145620000
H                 -6.8898020000      3.8257040000     -0.1763880000
H                 -6.5664180000      4.4541390000      2.2135710000
H                 -5.0488090000      3.1103460000      3.6604910000
H                 -3.8628060000      1.1327510000      2.7270250000
O                 -0.2282710000      0.0028760000      1.5329670000
O                 -0.7221160000      0.4456910000     -1.0827730000
O                  2.6431930000     -1.0860560000      1.4130720000
O                  2.2216290000     -0.8625110000     -1.8910630000
O                  0.6666720000      2.9641670000      0.2644130000
S                  1.5711110000      3.6053250000     -0.7189660000
S                  3.3941590000     -0.1096660000      2.2417770000
S                  1.5819090000     -2.1642540000     -1.5912870000
O                  2.4425290000      2.5658400000     -1.3283710000
O                  2.2042240000      4.8467340000     -0.3303310000
O                  2.9184820000      1.2613370000      1.9266890000
O                  3.5920580000     -0.4407160000      3.6356720000
O                  0.6378510000     -2.0170540000     -0.4527100000
O                  1.0619470000     -2.9120500000     -2.7233590000
C                  2.9601020000     -3.2249760000     -0.9159500000
C                  5.0588790000     -0.1333870000      1.4661580000
C                  0.4529600000      4.0587920000     -2.1031130000
F                  2.5449020000     -3.8491700000      0.1714970000
F                  4.0216920000     -2.4954240000     -0.6363710000
F                  3.2881710000     -4.1247500000     -1.8295330000
F                  4.9356050000      0.1824150000      0.1796130000
F                  5.5982040000     -1.3370170000      1.5654960000
F                  5.8529710000      0.7483770000      2.0506800000
F                 -0.1242490000      2.9719950000     -2.5963070000
F                  1.1452340000      4.6511890000     -3.0640890000
F                 -0.4863710000      4.8873300000     -1.6730130000
C                 -4.0324960000      0.1599880000      0.1783180000
H                 -3.8977700000      0.2822800000     -0.9115540000
C                 -4.8784930000     -1.1606900000      0.3530440000
C                 -6.1647080000     -1.0491810000     -0.3481830000
C                 -5.0822820000     -1.4189810000      1.7937180000
C                 -2.0168200000     -3.5245870000     -0.4652480000
C                 -4.0823680000     -4.1436180000     -1.4977850000
C                 -2.7028730000     -4.3816050000     -1.2751670000
H                 -0.9426260000     -3.6328450000     -0.2999080000
H                 -4.6893880000     -4.7953990000     -2.1287770000
H                 -2.2064100000     -5.2184950000     -1.7665680000
N                 -7.1754510000     -0.8727090000     -0.8804180000
N                 -5.1984780000     -1.6218260000      2.9263480000
N                 -4.0852140000     -2.2705060000     -0.2179030000
N                 -4.7206160000     -3.0981470000     -0.9856380000
C                 -2.7086670000     -2.4245660000      0.2520590000
H                 -2.7866520000     -2.7373750000      1.3205070000
Yb                 1.5533950000      0.6430240000     -0.0512430000
O                 -2.8248380000     -0.0784200000      0.8478290000
C                 -0.5832100000     -2.2100070000      2.2857840000
H                  0.3479540000     -2.0276720000      2.8354560000
H                 -1.4228140000     -2.2589620000      3.0016050000
H                 -0.5237090000     -3.1706260000      1.7607990000
C                 -1.8709450000     -1.1641780000     -2.3688490000
H                 -1.1994530000     -2.0165460000     -2.5701150000
H                 -2.9092760000     -1.5222330000     -2.3659620000
H                 -1.7297480000     -0.4315540000     -3.1736080000

H     0
S    3   1.00
     13.0107010              0.19682158D-01
      1.9622572              0.13796524
      0.44453796             0.47831935
S    1   1.00
      0.12194962             1.0000000
P    1   1.00
      0.8000000              1.0000000
****
C     0
S    5   1.00
   1238.4016938              0.54568832082D-02
    186.29004992             0.40638409211D-01
     42.251176346            0.18025593888
     11.676557932            0.46315121755
      3.5930506482           0.44087173314
S    1   1.00
      0.40245147363          1.0000000
S    1   1.00
      0.13090182668          1.0000000
P    3   1.00
      9.4680970621           0.38387871728D-01
      2.0103545142           0.21117025112
      0.54771004707          0.51328172114
P    1   1.00
      0.15268613795          1.0000000
D    1   1.00
      0.8000000              1.0000000
****
N     0
S    5   1.00
   1712.8415853             -0.53934125305D-02
    257.64812677            -0.40221581118D-01
     58.458245853           -0.17931144990
     16.198367905           -0.46376317823
      5.0052600809          -0.44171422662
S    1   1.00
      0.58731856571          1.0000000
S    1   1.00
      0.18764592253          1.0000000
P    3   1.00
     13.571470233           -0.40072398852D-01
      2.9257372874          -0.21807045028
      0.79927750754         -0.51294466049
P    1   1.00
      0.21954348034          1.0000000
D    1   1.00
      1.0000000              1.0000000
****
O     0
S    5   1.00
   2266.1767785             -0.53431809926D-02
    340.87010191            -0.39890039230D-01
     77.363135167           -0.17853911985
     21.479644940           -0.46427684959
      6.6589433124          -0.44309745172
S    1   1.00
      0.80975975668          1.0000000
S    1   1.00
      0.25530772234          1.0000000
P    3   1.00
     17.721504317            0.43394573193D-01
      3.8635505440           0.23094120765
      1.0480920883           0.51375311064
P    1   1.00
      0.27641544411          1.0000000
D    1   1.00
      1.2000000              1.0000000
****
F     0
S    5   1.00
   2894.8325990             -0.53408255515D-02
    435.41939120            -0.39904258866D-01
     98.843328866           -0.17912768038
     27.485198001           -0.46758090825
      8.5405498171          -0.44653131020
S    1   1.00
      1.0654578038           1.0000000
S    1   1.00
      0.33247346748          1.0000000
P    3   1.00
     22.696633924           -0.45212874436D-01
      4.9872339257          -0.23754317067
      1.3491613954          -0.51287353587
P    1   1.00
      0.34829881977          1.0000000
D    1   1.00
      1.4000000              1.0000000
****
S     0
S    5   1.00
   9184.9303010             -0.22294387756D-02
   1381.5105503             -0.16683029937D-01
    313.87147580            -0.75262436116D-01
     88.053870623           -0.19376827038
     27.039914905           -0.17718020803
S    3   1.00
     45.648731303           -0.10736062573
      4.9664522326           0.65066293018
      2.0116242047           0.59712155354
S    1   1.00
      0.35661077013          1.0000000
S    1   1.00
      0.13507221477          1.0000000
P    5   1.00
    261.98233439            -0.92729929822D-02
     61.306894736           -0.66547669241D-01
     19.103729887           -0.24828595903
      6.6567720378          -0.48703847402
      2.3959635161          -0.39337850312
P    1   1.00
      0.61776161679          1.0000000
P    1   1.00
      0.16993376871          1.0000000
D    1   1.00
      0.5500000              1.0000000
****
Yb     0
S    5   1.00
  91972.903000               0.51000000000D-04
  13787.371000               0.38600000000D-03
   3123.6135000              0.18440000000D-02
    871.47540000             0.53560000000D-02
    250.46300000             0.88590000000D-02
S    1   1.00
     58.282700000            1.0000000
S    1   1.00
     41.630500000            1.0000000
S    1   1.00
     20.216400000            1.0000000
S    1   1.00
      4.9972000000           1.0000000
S    1   1.00
      2.4822000000           1.0000000
S    1   1.00
      0.91790000000          1.0000000
S    1   1.00
      0.38530000000          1.0000000
S    1   1.00
      0.61400000000D-01      1.0000000
S    1   1.00
      0.25000000000D-01      1.0000000
P    3   1.00
     12.274108000           -0.15252141000
     10.695631000           -0.20243492000
      2.0359782000          -0.19621046000
P    6   1.00
   1497.5567000             -0.10182934000D-02
    375.04101000            -0.60919401000D-02
    128.69727000            -0.17077693000D-01
     45.270759000           -0.35655508000D-01
     14.906971000            0.23732226000
      5.6450858000          -0.30559689000
P    1   1.00
      3.6752106000           1.0000000
P    1   1.00
      1.3296961000           1.0000000
P    1   1.00
      0.55338966000          1.0000000
P    1   1.00
      0.22382350000          1.0000000
P    1   1.00
      0.68350467650D-01      1.0000000
P    1   1.00
      0.25355670803D-01      1.0000000
D    6   1.00
    469.76060000             0.19840000000D-02
    142.61280000             0.16013000000D-01
     55.126700000            0.63153000000D-01
     23.441500000            0.13780000000
      9.4951000000           0.28549800000
      4.5792000000           0.43830900000
D    1   1.00
      2.1646000000           1.0000000
D    1   1.00
      0.92380000000          1.0000000
D    1   1.00
      0.31070000000          1.0000000
D    1   1.00
      0.91400000000D-01      1.0000000
F    5   1.00
    142.02930000             0.59570000000D-02
     51.086200000            0.53180000000D-01
     22.874100000            0.17807600000
     10.502500000            0.30060000000
      4.7872000000           0.35034200000
F    1   1.00
      2.1088000000           1.0000000
F    1   1.00
      0.86090000000          1.0000000
F    1   1.00
      0.30600000000          1.0000000
G    1   1.00
      0.51330000000          1.0000000
****

Yb     0
Yb-ECP     5     28
h potential
  1
2      1.00000000             0.00000000
s-h potential
  1
2     32.42448400           891.01377700
p-h potential
  1
2     18.65623200           264.03695300
d-h potential
  1
2     10.49022200            73.92391900
f-h potential
  1
2     20.77418300           -39.59217300
g-h potential
  1
2     28.43102800           -34.63863800





























































