%chk=preplx.chk
%mem=616Gb
%nprocshared=24
#P UMN15/genecp scf=(maxcyc=500) opt scrf=(smd,solvent=DiChloroEthane)  

Opt

0 1
 C                 -4.65159400    1.20128600    0.99184300
 C                 -5.96948500    0.80494200    0.73906000
 C                 -6.88960700    0.72560400    1.78684200
 C                 -6.49825400    1.05414300    3.08542100
 C                 -5.19009500    1.48448200    3.33394200
 C                 -4.27035300    1.56584200    2.29019300
 C                 -2.32602100    0.66412500   -0.13432500
 C                 -1.62676100    0.33733700   -1.43691600
 C                 -1.69724700   -0.03525700    1.05432900
 H                 -6.27054300    0.55466200   -0.28135000
 H                 -7.91473600    0.40705100    1.58592400
 H                 -7.21602000    0.98907900    3.90629900
 H                 -4.88875800    1.76388500    4.34595200
 H                 -3.25188900    1.91719800    2.48046900
 O                 -0.49177200    0.04604100    1.28453500
 O                 -0.40581600    0.17395200   -1.48980100
 O                  2.40772900   -0.19991600    1.88089100
 O                  2.70299800   -0.62679200   -1.42254400
 O                  0.34513400    2.57907100    0.34166000
 S                  1.01179200    3.30358300   -0.79317500
 S                  3.41895500    0.90516400    1.98613400
 S                  2.09883000   -1.99232900   -1.26521700
 O                  1.68682200    2.23192600   -1.58674600
 O                  1.75548200    4.49383200   -0.47843400
 O                  3.15492000    1.76145600    0.78970900
 O                  3.57292200    1.54511400    3.26403300
 O                  1.06082900   -1.83939900   -0.20552600
 O                  1.74104800   -2.68633500   -2.47777000
 C                  3.42498900   -3.01201800   -0.48562800
 C                  5.03140800    0.08868500    1.62649100
 C                 -0.38634100    3.88413600   -1.84685400
 F                  3.06232800   -4.28006000   -0.54991900
 F                  3.57822700   -2.66099900    0.77555500
 F                  4.55144600   -2.83421200   -1.14366800
 F                  5.04693400   -0.33677500    0.37663600
 F                  5.18759800   -0.93032700    2.44824200
 F                  5.99846600    0.96447200    1.80960800
 F                 -1.02123900    2.85259600   -2.38301800
 F                  0.09951600    4.64098100   -2.81069000
 F                 -1.21958100    4.58258100   -1.10583600
 C                 -3.68919800    1.25591500   -0.14485000
 H                 -4.14761400    1.31399600   -1.13892200
 C                 -4.18887200   -2.38478400   -0.31555600
 C                 -4.76368800   -1.68803700   -1.39725500
 C                 -4.81029300   -2.44357200    0.94670400
 C                 -1.20814600   -4.47772400    0.18822900
 C                 -1.23308300   -3.43260500   -1.93871000
 C                 -0.59877500   -4.30326800   -1.04531300
 H                 -0.78609600   -5.12123000    0.96106300
 H                 -0.80327600   -3.21062300   -2.91827400
 H                  0.34190100   -4.78517600   -1.30955700
 N                 -5.28077000   -1.09341200   -2.25831600
 N                 -5.29272700   -2.50038300    2.00855500
 N                 -2.95405500   -3.02215000   -0.50111500
 N                 -2.36813600   -2.80568500   -1.67611400
 C                 -2.40129100   -3.81911000    0.44725800
 H                 -2.95588400   -3.92680200    1.37997700
 Lu                 1.32172400    0.52488300   -0.01588000
 O                 -2.52566100    2.05188500    0.01652100
 C                 -2.58272078   -0.77444848    1.85022730
 H                 -2.15950010   -1.73524695    2.05674740
 H                 -2.75414714   -0.25507816    2.76988347
 H                 -3.51059373   -0.89740918    1.33173675
 C                 -2.46385253    0.30303764   -2.56031409
 H                 -3.12269260   -0.53701959   -2.48866483
 H                 -3.03871104    1.20442160   -2.60441237
 H                 -1.86929162    0.21552261   -3.44560412

H     0
S    3   1.00
     13.0107010              0.19682158D-01
      1.9622572              0.13796524
      0.44453796             0.47831935
S    1   1.00
      0.12194962             1.0000000
P    1   1.00
      0.8000000              1.0000000
****
C     0
S    5   1.00
   1238.4016938              0.54568832082D-02
    186.29004992             0.40638409211D-01
     42.251176346            0.18025593888
     11.676557932            0.46315121755
      3.5930506482           0.44087173314
S    1   1.00
      0.40245147363          1.0000000
S    1   1.00
      0.13090182668          1.0000000
P    3   1.00
      9.4680970621           0.38387871728D-01
      2.0103545142           0.21117025112
      0.54771004707          0.51328172114
P    1   1.00
      0.15268613795          1.0000000
D    1   1.00
      0.8000000              1.0000000
****
N     0
S    5   1.00
   1712.8415853             -0.53934125305D-02
    257.64812677            -0.40221581118D-01
     58.458245853           -0.17931144990
     16.198367905           -0.46376317823
      5.0052600809          -0.44171422662
S    1   1.00
      0.58731856571          1.0000000
S    1   1.00
      0.18764592253          1.0000000
P    3   1.00
     13.571470233           -0.40072398852D-01
      2.9257372874          -0.21807045028
      0.79927750754         -0.51294466049
P    1   1.00
      0.21954348034          1.0000000
D    1   1.00
      1.0000000              1.0000000
****
O     0
S    5   1.00
   2266.1767785             -0.53431809926D-02
    340.87010191            -0.39890039230D-01
     77.363135167           -0.17853911985
     21.479644940           -0.46427684959
      6.6589433124          -0.44309745172
S    1   1.00
      0.80975975668          1.0000000
S    1   1.00
      0.25530772234          1.0000000
P    3   1.00
     17.721504317            0.43394573193D-01
      3.8635505440           0.23094120765
      1.0480920883           0.51375311064
P    1   1.00
      0.27641544411          1.0000000
D    1   1.00
      1.2000000              1.0000000
****
F     0
S    5   1.00
   2894.8325990             -0.53408255515D-02
    435.41939120            -0.39904258866D-01
     98.843328866           -0.17912768038
     27.485198001           -0.46758090825
      8.5405498171          -0.44653131020
S    1   1.00
      1.0654578038           1.0000000
S    1   1.00
      0.33247346748          1.0000000
P    3   1.00
     22.696633924           -0.45212874436D-01
      4.9872339257          -0.23754317067
      1.3491613954          -0.51287353587
P    1   1.00
      0.34829881977          1.0000000
D    1   1.00
      1.4000000              1.0000000
****
S     0
S    5   1.00
   9184.9303010             -0.22294387756D-02
   1381.5105503             -0.16683029937D-01
    313.87147580            -0.75262436116D-01
     88.053870623           -0.19376827038
     27.039914905           -0.17718020803
S    3   1.00
     45.648731303           -0.10736062573
      4.9664522326           0.65066293018
      2.0116242047           0.59712155354
S    1   1.00
      0.35661077013          1.0000000
S    1   1.00
      0.13507221477          1.0000000
P    5   1.00
    261.98233439            -0.92729929822D-02
     61.306894736           -0.66547669241D-01
     19.103729887           -0.24828595903
      6.6567720378          -0.48703847402
      2.3959635161          -0.39337850312
P    1   1.00
      0.61776161679          1.0000000
P    1   1.00
      0.16993376871          1.0000000
D    1   1.00
      0.5500000              1.0000000
****
Lu     0
S    5   1.00
  95169.767000               0.22000000000D-04
  15488.403000               0.14500000000D-03
   3776.2335000              0.65100000000D-03
   1079.0501000              0.20380000000D-02
    268.95380000             0.51270000000D-02
S    1   1.00
     63.467900000            1.0000000
S    1   1.00
     45.133200000            1.0000000
S    1   1.00
     21.456800000            1.0000000
S    1   1.00
      5.3483000000           1.0000000
S    1   1.00
      2.6778000000           1.0000000
S    1   1.00
      1.0287000000           1.0000000
S    1   1.00
      0.44080000000          1.0000000
S    1   1.00
      0.79100000000D-01      1.0000000
S    1   1.00
      0.31300000000D-01      1.0000000
P    3   1.00
     12.333733920           -0.15313031066
     11.080331415           -0.20300664852
      2.0341747228          -0.19458361263
P    6   1.00
   1500.5317313             -0.10192569555D-02
    382.39748937            -0.59476212135D-02
    132.99969628            -0.16265160929D-01
     46.110032419           -0.35623845839D-01
     15.583529011            0.23709171074
      5.7856677022          -0.30670977844
P    1   1.00
      3.7823361008           1.0000000
P    1   1.00
      1.3682592248           1.0000000
P    1   1.00
      0.57288205601          1.0000000
P    1   1.00
      0.22793165135          1.0000000
P    1   1.00
      0.81403917986D-01      1.0000000
P    1   1.00
      0.29091071778D-01      1.0000000
D    6   1.00
    484.52750000             0.22860000000D-02
    146.66550000             0.18629000000D-01
     56.377900000            0.74088000000D-01
     23.671100000            0.16155400000
      9.4401000000           0.30809100000
      4.3712000000           0.44833400000
D    1   1.00
      1.9580000000           1.0000000
D    1   1.00
      0.72720000000          1.0000000
D    1   1.00
      0.24600000000          1.0000000
D    1   1.00
      0.74400000000D-01      1.0000000
F    5   1.00
    175.15590000             0.41020000000D-02
     62.890900000            0.39086000000D-01
     28.362400000            0.14704400000
     13.247800000            0.27109200000
      6.1440000000           0.34566500000
F    1   1.00
      2.7623000000           1.0000000
F    1   1.00
      1.1574000000           1.0000000
F    1   1.00
      0.42440000000          1.0000000
G    1   1.00
      0.70090000000          1.0000000
****

Lu     0
Lu-ECP     5     28
h potential
  1
2      1.00000000             0.00000000
s-h potential
  1
2     35.16209700           989.99558400
p-h potential
  1
2     19.46440200           278.86565200
d-h potential
  1
2     10.00686500            71.00917800
f-h potential
  1
2     23.51793200           -47.40589000
g-h potential
  1
2     29.41223800           -35.55714600






