%chk=preplx.chk
%mem=616Gb
%nprocshared=24
#P UMN15/genecp scf=(maxcyc=500) freq scrf=(smd,solvent=DiChloroEthane)  

freq

0 1
C                  4.2042800000     -1.7132840000      1.2747800000
C                  5.5363810000     -1.2815400000      1.2906680000
C                  6.2024900000     -1.1214890000      2.5069770000
C                  5.5497080000     -1.4148330000      3.7079400000
C                  4.2323890000     -1.8803340000      3.6903320000
C                  3.5581710000     -2.0300490000      2.4769520000
C                  2.1995650000     -0.9954410000     -0.1629420000
C                  1.5604560000     -0.7167620000     -1.5174920000
C                  1.6410020000     -0.1406080000      0.9695920000
H                  6.0493350000     -1.0696740000      0.3496470000
H                  7.2353840000     -0.7662850000      2.5150600000
H                  6.0729400000     -1.2903630000      4.6585750000
H                  3.7260880000     -2.1295330000      4.6254560000
H                  2.5288090000     -2.3991380000      2.4586380000
O                  0.4493880000     -0.2729220000      1.2412910000
O                  0.3650750000     -0.4197230000     -1.5218720000
O                 -2.3697890000      0.5054180000      1.8205580000
O                 -2.4830860000      1.0365410000     -1.4535040000
O                 -0.9195490000     -2.6210530000      0.3846380000
S                 -1.6723880000     -3.2134280000     -0.7736030000
S                 -3.6129430000     -0.3368260000      1.8723170000
S                 -1.5993800000      2.2357770000     -1.2696070000
O                 -2.0653020000     -2.0390070000     -1.6123640000
O                 -2.6672750000     -4.2107270000     -0.4845420000
O                 -3.5148530000     -1.2096490000      0.6628910000
O                 -3.9498680000     -0.9459070000      3.1298430000
O                 -0.6195920000      1.8447020000     -0.2156230000
O                 -1.0861730000      2.8586630000     -2.4661500000
C                 -2.6744750000      3.5117450000     -0.4794640000
C                 -4.9824110000      0.8368150000      1.4936070000
C                 -0.3714160000     -4.0945770000     -1.7403200000
F                 -2.0305560000      4.6642530000     -0.5119370000
F                 -2.9245510000      3.1816080000      0.7712080000
F                 -3.7996290000      3.6069410000     -1.1558220000
F                 -4.8636130000      1.2804210000      0.2558280000
F                 -4.9241770000      1.8465750000      2.3389680000
F                 -6.1293430000      0.2030300000      1.6298350000
F                  0.4344380000     -3.2215860000     -2.3211220000
F                 -0.9554310000     -4.8317070000     -2.6634630000
F                  0.3195580000     -4.8620900000     -0.9235950000
C                  3.4549280000     -1.7704450000     -0.0143860000
H                  4.0443700000     -1.9659460000     -0.9173520000
C                  5.2909400000      1.8655170000     -0.5987580000
C                  5.4718700000      0.7820920000     -1.4792230000
C                  6.2217800000      2.1442680000      0.4196450000
C                  2.7159040000      4.4488340000     -0.1281090000
C                  2.0463900000      2.7612290000     -1.6540140000
C                  1.7351430000      3.9422360000     -0.9686470000
H                  2.5756880000      5.3681230000      0.4416450000
H                  1.3359220000      2.2996350000     -2.3443500000
H                  0.7641430000      4.4197470000     -1.0981900000
N                  5.6556490000     -0.1343360000     -2.1795420000
N                  6.9877050000      2.3567990000      1.2746710000
N                  4.1132710000      2.6197210000     -0.7036180000
N                  3.1901020000      2.1130140000     -1.5154760000
C                  3.9227560000      3.7699890000     -0.0157680000
H                  4.7516770000      4.1137600000      0.6032870000
Lu                -1.4150700000     -0.4212090000     -0.0513850000
O                  2.1820980000     -2.3955220000      0.0411230000
C                  2.4519500000      0.9071700000      1.6400380000
H                  2.0409590000      1.8723040000      1.2874520000
H                  2.2696930000      0.8709280000      2.7239110000
H                  3.5246140000      0.8409300000      1.4226150000
C                  2.3270620000     -0.9351760000     -2.7606900000
H                  3.2122970000     -0.2821400000     -2.7705730000
H                  2.7008120000     -1.9726860000     -2.7652030000
H                  1.6874540000     -0.7642180000     -3.6339910000

H     0
S    3   1.00
     13.0107010              0.19682158D-01
      1.9622572              0.13796524
      0.44453796             0.47831935
S    1   1.00
      0.12194962             1.0000000
P    1   1.00
      0.8000000              1.0000000
****
C     0
S    5   1.00
   1238.4016938              0.54568832082D-02
    186.29004992             0.40638409211D-01
     42.251176346            0.18025593888
     11.676557932            0.46315121755
      3.5930506482           0.44087173314
S    1   1.00
      0.40245147363          1.0000000
S    1   1.00
      0.13090182668          1.0000000
P    3   1.00
      9.4680970621           0.38387871728D-01
      2.0103545142           0.21117025112
      0.54771004707          0.51328172114
P    1   1.00
      0.15268613795          1.0000000
D    1   1.00
      0.8000000              1.0000000
****
N     0
S    5   1.00
   1712.8415853             -0.53934125305D-02
    257.64812677            -0.40221581118D-01
     58.458245853           -0.17931144990
     16.198367905           -0.46376317823
      5.0052600809          -0.44171422662
S    1   1.00
      0.58731856571          1.0000000
S    1   1.00
      0.18764592253          1.0000000
P    3   1.00
     13.571470233           -0.40072398852D-01
      2.9257372874          -0.21807045028
      0.79927750754         -0.51294466049
P    1   1.00
      0.21954348034          1.0000000
D    1   1.00
      1.0000000              1.0000000
****
O     0
S    5   1.00
   2266.1767785             -0.53431809926D-02
    340.87010191            -0.39890039230D-01
     77.363135167           -0.17853911985
     21.479644940           -0.46427684959
      6.6589433124          -0.44309745172
S    1   1.00
      0.80975975668          1.0000000
S    1   1.00
      0.25530772234          1.0000000
P    3   1.00
     17.721504317            0.43394573193D-01
      3.8635505440           0.23094120765
      1.0480920883           0.51375311064
P    1   1.00
      0.27641544411          1.0000000
D    1   1.00
      1.2000000              1.0000000
****
F     0
S    5   1.00
   2894.8325990             -0.53408255515D-02
    435.41939120            -0.39904258866D-01
     98.843328866           -0.17912768038
     27.485198001           -0.46758090825
      8.5405498171          -0.44653131020
S    1   1.00
      1.0654578038           1.0000000
S    1   1.00
      0.33247346748          1.0000000
P    3   1.00
     22.696633924           -0.45212874436D-01
      4.9872339257          -0.23754317067
      1.3491613954          -0.51287353587
P    1   1.00
      0.34829881977          1.0000000
D    1   1.00
      1.4000000              1.0000000
****
S     0
S    5   1.00
   9184.9303010             -0.22294387756D-02
   1381.5105503             -0.16683029937D-01
    313.87147580            -0.75262436116D-01
     88.053870623           -0.19376827038
     27.039914905           -0.17718020803
S    3   1.00
     45.648731303           -0.10736062573
      4.9664522326           0.65066293018
      2.0116242047           0.59712155354
S    1   1.00
      0.35661077013          1.0000000
S    1   1.00
      0.13507221477          1.0000000
P    5   1.00
    261.98233439            -0.92729929822D-02
     61.306894736           -0.66547669241D-01
     19.103729887           -0.24828595903
      6.6567720378          -0.48703847402
      2.3959635161          -0.39337850312
P    1   1.00
      0.61776161679          1.0000000
P    1   1.00
      0.16993376871          1.0000000
D    1   1.00
      0.5500000              1.0000000
****
Lu     0
S    5   1.00
  95169.767000               0.22000000000D-04
  15488.403000               0.14500000000D-03
   3776.2335000              0.65100000000D-03
   1079.0501000              0.20380000000D-02
    268.95380000             0.51270000000D-02
S    1   1.00
     63.467900000            1.0000000
S    1   1.00
     45.133200000            1.0000000
S    1   1.00
     21.456800000            1.0000000
S    1   1.00
      5.3483000000           1.0000000
S    1   1.00
      2.6778000000           1.0000000
S    1   1.00
      1.0287000000           1.0000000
S    1   1.00
      0.44080000000          1.0000000
S    1   1.00
      0.79100000000D-01      1.0000000
S    1   1.00
      0.31300000000D-01      1.0000000
P    3   1.00
     12.333733920           -0.15313031066
     11.080331415           -0.20300664852
      2.0341747228          -0.19458361263
P    6   1.00
   1500.5317313             -0.10192569555D-02
    382.39748937            -0.59476212135D-02
    132.99969628            -0.16265160929D-01
     46.110032419           -0.35623845839D-01
     15.583529011            0.23709171074
      5.7856677022          -0.30670977844
P    1   1.00
      3.7823361008           1.0000000
P    1   1.00
      1.3682592248           1.0000000
P    1   1.00
      0.57288205601          1.0000000
P    1   1.00
      0.22793165135          1.0000000
P    1   1.00
      0.81403917986D-01      1.0000000
P    1   1.00
      0.29091071778D-01      1.0000000
D    6   1.00
    484.52750000             0.22860000000D-02
    146.66550000             0.18629000000D-01
     56.377900000            0.74088000000D-01
     23.671100000            0.16155400000
      9.4401000000           0.30809100000
      4.3712000000           0.44833400000
D    1   1.00
      1.9580000000           1.0000000
D    1   1.00
      0.72720000000          1.0000000
D    1   1.00
      0.24600000000          1.0000000
D    1   1.00
      0.74400000000D-01      1.0000000
F    5   1.00
    175.15590000             0.41020000000D-02
     62.890900000            0.39086000000D-01
     28.362400000            0.14704400000
     13.247800000            0.27109200000
      6.1440000000           0.34566500000
F    1   1.00
      2.7623000000           1.0000000
F    1   1.00
      1.1574000000           1.0000000
F    1   1.00
      0.42440000000          1.0000000
G    1   1.00
      0.70090000000          1.0000000
****

Lu     0
Lu-ECP     5     28
h potential
  1
2      1.00000000             0.00000000
s-h potential
  1
2     35.16209700           989.99558400
p-h potential
  1
2     19.46440200           278.86565200
d-h potential
  1
2     10.00686500            71.00917800
f-h potential
  1
2     23.51793200           -47.40589000
g-h potential
  1
2     29.41223800           -35.55714600






