%chk=ts1.chk
%mem=616Gb
%nprocshared=24
# irc=(maxpoints=100,recorrect=never,calcfc,maxcycles=500,nogradstop) UMN15/genecp scrf=(smd,solvent=DiChloroEthane)  

IRC for Going from opening the ring, where we are opening 7-8

0 2
C                 -4.3472450000     -0.7848630000     -0.7446310000
C                 -5.0287370000      0.0300050000     -1.6986620000
C                 -5.9344920000      0.9650680000     -1.2459260000
C                 -6.1622250000      1.1059660000      0.1399600000
C                 -5.5063590000      0.2992400000      1.0883980000
C                 -4.6122080000     -0.6559500000      0.6534740000
C                 -3.4076560000     -1.7611530000     -1.1101830000
C                 -1.8165570000     -1.4233600000     -1.9700150000
O                 -3.0027240000     -1.9372510000     -2.4042430000
C                 -0.7852290000     -2.3560680000     -1.4171940000
C                 -1.4627600000     -0.0071450000     -2.2785670000
H                 -4.8333630000     -0.1115150000     -2.7620740000
H                 -6.4781380000      1.5957080000     -1.9505340000
H                 -6.8746620000      1.8588680000      0.4849470000
H                 -5.7055760000      0.4303950000      2.1526790000
H                 -4.0811170000     -1.3069820000      1.3503700000
H                 -3.0717690000     -2.5078560000     -0.3757750000
O                 -0.3786700000      0.4717710000     -2.0020870000
O                  0.2710510000     -1.9701790000     -0.9570100000
Yb                 1.0075750000      0.2416650000      0.0362170000
O                 -1.1728050000     -3.6038040000     -1.4522010000
O                 -2.4294070000      0.6399760000     -2.8715780000
C                 -0.2921310000     -4.5460700000     -0.8161440000
C                 -2.1998000000      2.0364330000     -3.1301310000
H                 -0.7877610000     -5.5189580000     -0.8803040000
H                 -0.1443320000     -4.2468840000      0.2305410000
H                  0.6730090000     -4.5647970000     -1.3389900000
H                 -3.1647650000      2.4522150000     -3.4360530000
H                 -1.4606340000      2.1439530000     -3.9351320000
H                 -1.8241050000      2.5261240000     -2.2220440000
O                 -0.2802280000      2.4414030000      0.1847900000
O                  0.4307270000     -1.4779230000      1.8977070000
O                  2.8112680000     -0.5589200000     -1.5151340000
S                  3.8657510000     -0.6790840000     -0.4819410000
S                  0.7256600000      3.2385290000     -0.5584190000
S                 -1.0320070000     -1.3742640000      1.7422690000
O                  3.3359930000     -0.2044940000      0.8224740000
O                  5.2016130000     -0.2536040000     -0.8414050000
O                  1.8643440000      2.3681540000     -0.9407360000
O                  0.2216260000      4.1519310000     -1.5651170000
O                 -1.3839550000     -0.3159130000      0.7608470000
O                 -1.7748090000     -2.6212760000      1.5774820000
C                 -1.5835270000     -0.6754210000      3.3498210000
C                  1.4551160000      4.3031420000      0.7474210000
C                  3.9991150000     -2.4940590000     -0.2304220000
F                 -2.8935710000     -0.4720150000      3.3352560000
F                 -0.9688750000      0.4785760000      3.5518750000
F                 -1.2843450000     -1.5106990000      4.3275300000
F                  1.9411810000      3.5378340000      1.7182780000
F                  0.5288290000      5.1023450000      1.2544130000
F                  2.4349410000      5.0378110000      0.2471240000
F                  2.8319880000     -2.9860200000      0.1630070000
F                  4.9103910000     -2.7586790000      0.6938300000
F                  4.3515150000     -3.0828510000     -1.3643020000

H     0
S    3   1.00
     13.0107010              0.19682158D-01
      1.9622572              0.13796524
      0.44453796             0.47831935
S    1   1.00
      0.12194962             1.0000000
P    1   1.00
      0.8000000              1.0000000
****
C     0
S    5   1.00
   1238.4016938              0.54568832082D-02
    186.29004992             0.40638409211D-01
     42.251176346            0.18025593888
     11.676557932            0.46315121755
      3.5930506482           0.44087173314
S    1   1.00
      0.40245147363          1.0000000
S    1   1.00
      0.13090182668          1.0000000
P    3   1.00
      9.4680970621           0.38387871728D-01
      2.0103545142           0.21117025112
      0.54771004707          0.51328172114
P    1   1.00
      0.15268613795          1.0000000
D    1   1.00
      0.8000000              1.0000000
****
O     0
S    5   1.00
   2266.1767785             -0.53431809926D-02
    340.87010191            -0.39890039230D-01
     77.363135167           -0.17853911985
     21.479644940           -0.46427684959
      6.6589433124          -0.44309745172
S    1   1.00
      0.80975975668          1.0000000
S    1   1.00
      0.25530772234          1.0000000
P    3   1.00
     17.721504317            0.43394573193D-01
      3.8635505440           0.23094120765
      1.0480920883           0.51375311064
P    1   1.00
      0.27641544411          1.0000000
D    1   1.00
      1.2000000              1.0000000
****
F     0
S    5   1.00
   2894.8325990             -0.53408255515D-02
    435.41939120            -0.39904258866D-01
     98.843328866           -0.17912768038
     27.485198001           -0.46758090825
      8.5405498171          -0.44653131020
S    1   1.00
      1.0654578038           1.0000000
S    1   1.00
      0.33247346748          1.0000000
P    3   1.00
     22.696633924           -0.45212874436D-01
      4.9872339257          -0.23754317067
      1.3491613954          -0.51287353587
P    1   1.00
      0.34829881977          1.0000000
D    1   1.00
      1.4000000              1.0000000
****
S     0
S    5   1.00
   9184.9303010             -0.22294387756D-02
   1381.5105503             -0.16683029937D-01
    313.87147580            -0.75262436116D-01
     88.053870623           -0.19376827038
     27.039914905           -0.17718020803
S    3   1.00
     45.648731303           -0.10736062573
      4.9664522326           0.65066293018
      2.0116242047           0.59712155354
S    1   1.00
      0.35661077013          1.0000000
S    1   1.00
      0.13507221477          1.0000000
P    5   1.00
    261.98233439            -0.92729929822D-02
     61.306894736           -0.66547669241D-01
     19.103729887           -0.24828595903
      6.6567720378          -0.48703847402
      2.3959635161          -0.39337850312
P    1   1.00
      0.61776161679          1.0000000
P    1   1.00
      0.16993376871          1.0000000
D    1   1.00
      0.5500000              1.0000000
****
Yb     0
S    5   1.00
  91972.903000               0.51000000000D-04
  13787.371000               0.38600000000D-03
   3123.6135000              0.18440000000D-02
    871.47540000             0.53560000000D-02
    250.46300000             0.88590000000D-02
S    1   1.00
     58.282700000            1.0000000
S    1   1.00
     41.630500000            1.0000000
S    1   1.00
     20.216400000            1.0000000
S    1   1.00
      4.9972000000           1.0000000
S    1   1.00
      2.4822000000           1.0000000
S    1   1.00
      0.91790000000          1.0000000
S    1   1.00
      0.38530000000          1.0000000
S    1   1.00
      0.61400000000D-01      1.0000000
S    1   1.00
      0.25000000000D-01      1.0000000
P    3   1.00
     12.274108000           -0.15252141000
     10.695631000           -0.20243492000
      2.0359782000          -0.19621046000
P    6   1.00
   1497.5567000             -0.10182934000D-02
    375.04101000            -0.60919401000D-02
    128.69727000            -0.17077693000D-01
     45.270759000           -0.35655508000D-01
     14.906971000            0.23732226000
      5.6450858000          -0.30559689000
P    1   1.00
      3.6752106000           1.0000000
P    1   1.00
      1.3296961000           1.0000000
P    1   1.00
      0.55338966000          1.0000000
P    1   1.00
      0.22382350000          1.0000000
P    1   1.00
      0.68350467650D-01      1.0000000
P    1   1.00
      0.25355670803D-01      1.0000000
D    6   1.00
    469.76060000             0.19840000000D-02
    142.61280000             0.16013000000D-01
     55.126700000            0.63153000000D-01
     23.441500000            0.13780000000
      9.4951000000           0.28549800000
      4.5792000000           0.43830900000
D    1   1.00
      2.1646000000           1.0000000
D    1   1.00
      0.92380000000          1.0000000
D    1   1.00
      0.31070000000          1.0000000
D    1   1.00
      0.91400000000D-01      1.0000000
F    5   1.00
    142.02930000             0.59570000000D-02
     51.086200000            0.53180000000D-01
     22.874100000            0.17807600000
     10.502500000            0.30060000000
      4.7872000000           0.35034200000
F    1   1.00
      2.1088000000           1.0000000
F    1   1.00
      0.86090000000          1.0000000
F    1   1.00
      0.30600000000          1.0000000
G    1   1.00
      0.51330000000          1.0000000
****

Yb     0
Yb-ECP     5     28
h potential
  1
2      1.00000000             0.00000000
s-h potential
  1
2     32.42448400           891.01377700
p-h potential
  1
2     18.65623200           264.03695300
d-h potential
  1
2     10.49022200            73.92391900
f-h potential
  1
2     20.77418300           -39.59217300
g-h potential
  1
2     28.43102800           -34.63863800







































