%chk=i1-open.chk
%mem=616Gb
%nprocshared=24
#P UMN15/genecp scf=(maxcyc=500) opt scrf=(smd,solvent=DiChloroEthane)  

Opt

0 2
 C                 -4.80937435   -0.88106220   -0.45934196
 C                 -5.61189135   -0.22941720   -1.45281796
 C                 -6.51844835    0.72092780   -1.05848896
 C                 -6.64764635    1.03474280    0.32332104
 C                 -5.88043235    0.36300280    1.31700904
 C                 -4.98378035   -0.59933620    0.93366204
 C                 -3.81602735   -1.89503320   -0.82549196
 C                 -1.41546165   -1.30602980   -2.06958004
 O                 -3.03056500   -2.02774000   -2.45305000
 C                 -0.28313565   -2.22084780   -1.65259004
 C                 -1.03811665    0.11048520   -2.44518504
 H                 -5.48181035   -0.50813120   -2.49881196
 H                 -7.14536835    1.23561580   -1.78755496
 H                 -7.36516035    1.79806880    0.63129404
 H                 -6.01618035    0.61637180    2.36907704
 H                 -4.38635035   -1.15145120    1.65804104
 H                 -3.74463835   -2.74529020   -0.12916096
 O                  0.05082035    0.59679020   -2.21938804
 O                  0.76997535   -1.81612280   -1.20414504
 Yb                 1.52724135    0.38693220   -0.24184304
 O                 -0.59629565   -3.48303180   -1.77078804
 O                 -2.01238765    0.74799320   -3.04013904
 C                  0.35227235   -4.41298280   -1.22600304
 C                 -1.77795665    2.12835520   -3.36702304
 H                 -0.08648265   -5.40744980   -1.35046504
 H                  0.51010835   -4.18417680   -0.16312604
 H                  1.30434035   -4.33939580   -1.76747104
 H                 -2.75238065    2.54809320   -3.63678504
 H                 -1.08554265    2.19107720   -4.21683204
 H                 -1.34515765    2.65109220   -2.50392304
 O                 -0.33286000    2.45204300    0.21799900
 O                  0.51716600   -1.51073600    1.91156200
 O                  3.28820435   -0.37380880   -1.87124104
 S                  4.38342935   -0.46743880   -0.87941504
 S                  0.65282000    3.25969800   -0.53888500
 S                 -0.95052600   -1.42688700    1.80439500
 O                  3.89780935   -0.00038080    0.44467196
 O                  5.69555835   -0.01586980   -1.29208304
 O                  1.78639700    2.40210500   -0.96050300
 O                  0.12148500    4.18639600   -1.51994500
 O                 -1.35149600   -0.31178200    0.90790100
 O                 -1.68359200   -2.67050100    1.58768200
 C                 -1.46561600   -0.84428900    3.46892400
 C                  1.40905500    4.30992900    0.76325000
 C                  4.56458535   -2.27857880   -0.63069004
 F                 -2.78433700   -0.69630300    3.51163900
 F                 -0.89358700    0.32159300    3.72175700
 F                 -1.09981100   -1.72119500    4.38626600
 F                  1.92313600    3.53355000    1.71106800
 F                  0.49176000    5.09683800    1.30571500
 F                  2.37271100    5.05794800    0.25091900
 F                  3.42198935   -2.79593880   -0.19986304
 F                  5.51100535   -2.52261380    0.26386696
 F                  4.89349035   -2.86151080   -1.77500604

H     0
S    3   1.00
     13.0107010              0.19682158D-01
      1.9622572              0.13796524
      0.44453796             0.47831935
S    1   1.00
      0.12194962             1.0000000
P    1   1.00
      0.8000000              1.0000000
****
C     0
S    5   1.00
   1238.4016938              0.54568832082D-02
    186.29004992             0.40638409211D-01
     42.251176346            0.18025593888
     11.676557932            0.46315121755
      3.5930506482           0.44087173314
S    1   1.00
      0.40245147363          1.0000000
S    1   1.00
      0.13090182668          1.0000000
P    3   1.00
      9.4680970621           0.38387871728D-01
      2.0103545142           0.21117025112
      0.54771004707          0.51328172114
P    1   1.00
      0.15268613795          1.0000000
D    1   1.00
      0.8000000              1.0000000
****
O     0
S    5   1.00
   2266.1767785             -0.53431809926D-02
    340.87010191            -0.39890039230D-01
     77.363135167           -0.17853911985
     21.479644940           -0.46427684959
      6.6589433124          -0.44309745172
S    1   1.00
      0.80975975668          1.0000000
S    1   1.00
      0.25530772234          1.0000000
P    3   1.00
     17.721504317            0.43394573193D-01
      3.8635505440           0.23094120765
      1.0480920883           0.51375311064
P    1   1.00
      0.27641544411          1.0000000
D    1   1.00
      1.2000000              1.0000000
****
F     0
S    5   1.00
   2894.8325990             -0.53408255515D-02
    435.41939120            -0.39904258866D-01
     98.843328866           -0.17912768038
     27.485198001           -0.46758090825
      8.5405498171          -0.44653131020
S    1   1.00
      1.0654578038           1.0000000
S    1   1.00
      0.33247346748          1.0000000
P    3   1.00
     22.696633924           -0.45212874436D-01
      4.9872339257          -0.23754317067
      1.3491613954          -0.51287353587
P    1   1.00
      0.34829881977          1.0000000
D    1   1.00
      1.4000000              1.0000000
****
S     0
S    5   1.00
   9184.9303010             -0.22294387756D-02
   1381.5105503             -0.16683029937D-01
    313.87147580            -0.75262436116D-01
     88.053870623           -0.19376827038
     27.039914905           -0.17718020803
S    3   1.00
     45.648731303           -0.10736062573
      4.9664522326           0.65066293018
      2.0116242047           0.59712155354
S    1   1.00
      0.35661077013          1.0000000
S    1   1.00
      0.13507221477          1.0000000
P    5   1.00
    261.98233439            -0.92729929822D-02
     61.306894736           -0.66547669241D-01
     19.103729887           -0.24828595903
      6.6567720378          -0.48703847402
      2.3959635161          -0.39337850312
P    1   1.00
      0.61776161679          1.0000000
P    1   1.00
      0.16993376871          1.0000000
D    1   1.00
      0.5500000              1.0000000
****
Yb     0
S    5   1.00
  91972.903000               0.51000000000D-04
  13787.371000               0.38600000000D-03
   3123.6135000              0.18440000000D-02
    871.47540000             0.53560000000D-02
    250.46300000             0.88590000000D-02
S    1   1.00
     58.282700000            1.0000000
S    1   1.00
     41.630500000            1.0000000
S    1   1.00
     20.216400000            1.0000000
S    1   1.00
      4.9972000000           1.0000000
S    1   1.00
      2.4822000000           1.0000000
S    1   1.00
      0.91790000000          1.0000000
S    1   1.00
      0.38530000000          1.0000000
S    1   1.00
      0.61400000000D-01      1.0000000
S    1   1.00
      0.25000000000D-01      1.0000000
P    3   1.00
     12.274108000           -0.15252141000
     10.695631000           -0.20243492000
      2.0359782000          -0.19621046000
P    6   1.00
   1497.5567000             -0.10182934000D-02
    375.04101000            -0.60919401000D-02
    128.69727000            -0.17077693000D-01
     45.270759000           -0.35655508000D-01
     14.906971000            0.23732226000
      5.6450858000          -0.30559689000
P    1   1.00
      3.6752106000           1.0000000
P    1   1.00
      1.3296961000           1.0000000
P    1   1.00
      0.55338966000          1.0000000
P    1   1.00
      0.22382350000          1.0000000
P    1   1.00
      0.68350467650D-01      1.0000000
P    1   1.00
      0.25355670803D-01      1.0000000
D    6   1.00
    469.76060000             0.19840000000D-02
    142.61280000             0.16013000000D-01
     55.126700000            0.63153000000D-01
     23.441500000            0.13780000000
      9.4951000000           0.28549800000
      4.5792000000           0.43830900000
D    1   1.00
      2.1646000000           1.0000000
D    1   1.00
      0.92380000000          1.0000000
D    1   1.00
      0.31070000000          1.0000000
D    1   1.00
      0.91400000000D-01      1.0000000
F    5   1.00
    142.02930000             0.59570000000D-02
     51.086200000            0.53180000000D-01
     22.874100000            0.17807600000
     10.502500000            0.30060000000
      4.7872000000           0.35034200000
F    1   1.00
      2.1088000000           1.0000000
F    1   1.00
      0.86090000000          1.0000000
F    1   1.00
      0.30600000000          1.0000000
G    1   1.00
      0.51330000000          1.0000000
****

Yb     0
Yb-ECP     5     28
h potential
  1
2      1.00000000             0.00000000
s-h potential
  1
2     32.42448400           891.01377700
p-h potential
  1
2     18.65623200           264.03695300
d-h potential
  1
2     10.49022200            73.92391900
f-h potential
  1
2     20.77418300           -39.59217300
g-h potential
  1
2     28.43102800           -34.63863800





















































































