%chk=i2.chk
%mem=616Gb
%nprocshared=24
#P  MN15/gen scf=(maxcyc=500) opt scrf=(smd,solvent=DiChloroEthane)  

Opt

0 1
 C                 -1.80590900    0.12098500    1.21315500
 C                 -1.46824900    0.15459900   -0.16155800
 C                 -0.75005500   -0.13483300    2.12571700
 O                  0.46339700   -0.33763700    1.82159100
 O                 -0.31235700    0.21238400   -0.66279300
 O                 -2.49130800    0.05715500   -1.00051800
 O                 -1.08404200   -0.24493700    3.40702700
 C                 -2.21204900    0.08260100   -2.39886000
 C                 -0.04032100   -0.49507100    4.34572000
 H                 -3.15677200   -0.14078600   -2.90771800
 H                 -1.44909100   -0.66667900   -2.65557200
 H                 -1.85270100    1.07552700   -2.70023000
 H                 -0.51363200   -0.50224300    5.33322400
 H                  0.72008700    0.29606600    4.29616500
 H                  0.43720900   -1.46479700    4.14904300
 O                  3.36707200   -0.86956400    0.93873400
 O                  2.29652500   -0.37475500   -1.75658200
 O                  0.51662300    2.27739600    1.01567600
 S                  1.06364400    3.09759900   -0.09389500
 S                  4.03629000    0.25775600    1.65895700
 S                  1.94700400   -1.82785600   -1.67491600
 O                  1.89982500    2.16082700   -0.91223700
 O                  1.62749400    4.38792600    0.21391200
 O                  3.05089300    1.37605300    1.58683900
 O                  4.66830000   -0.02254800    2.92097700
 O                  1.31819800   -2.02392600   -0.34640700
 O                  1.27745100   -2.40743500   -2.81932800
 C                  3.60412100   -2.68585100   -1.57075000
 C                  5.36116700    0.77137600    0.49079300
 C                 -0.40563300    3.44673900   -1.19900400
 F                  3.62437000   -3.47432300   -0.51395500
 F                  4.57583700   -1.79896000   -1.48294600
 F                  3.77643800   -3.41189600   -2.66114000
 F                  4.81009800    1.03511700   -0.68105400
 F                  6.23796600   -0.20610200    0.36177000
 F                  5.96298800    1.85113100    0.95213500
 F                 -1.50559000    2.93073200   -0.67086300
 F                 -0.20852100    2.91526800   -2.39137500
 F                 -0.55778100    4.75097000   -1.32044700
 C                 -4.53496900   -0.04815800    1.16767300
 C                 -4.66823600   -1.61276000    1.16287400
 C                 -5.96928500   -2.05534900    0.62045700
 C                 -4.63278200   -2.04818300    2.57754100
 C                 -1.34177800   -3.08621800    0.28758100
 C                 -2.85523000   -3.09526200   -1.56898700
 C                 -1.55721400   -3.32440000   -1.05287200
 H                 -0.38084100   -3.25925200    0.77053200
 H                 -3.10713600   -3.31235900   -2.60904800
 H                 -0.76129600   -3.68911400   -1.70473800
 N                 -7.01914700   -2.39031300    0.27089700
 N                 -4.61824600   -2.34948700    3.69398400
 N                 -3.57106600   -2.32240200    0.42693900
 N                 -3.82799200   -2.60009000   -0.83747900
 C                 -2.40025300   -2.55302100    1.03148200
 H                 -2.33602000   -2.36355500    2.10394200
 C                 -3.18507100    0.45648000    1.75675100
 H                 -3.29761900    1.55300800    1.77341500
 H                 -3.18129500    0.15950200    2.81495500
 Sc                 1.56571500    0.30059000    0.22129300
 H                 -5.24301200    0.20671500    1.97489400
 C                 -5.08978300    0.72014700   -0.02854000
 C                 -5.35920500    2.07943200    0.19870300
 C                 -5.38992800    0.19030700   -1.28820800
 C                 -5.88654100    2.89011700   -0.80576500
 H                 -5.16170800    2.51024300    1.18459800
 C                 -5.92952600    0.99788600   -2.29386900
 H                 -5.18806300   -0.85674900   -1.51490800
 C                 -6.17447900    2.35109400   -2.06190200
 H                 -6.08344100    3.94470700   -0.60037000
 H                 -6.15244300    0.55840200   -3.26890700
 H                 -6.59246300    2.98045900   -2.85071400

H     0
S    3   1.00
     13.0107010              0.19682158D-01
      1.9622572              0.13796524
      0.44453796             0.47831935
S    1   1.00
      0.12194962             1.0000000
P    1   1.00
      0.8000000              1.0000000
****
C     0
S    5   1.00
   1238.4016938              0.54568832082D-02
    186.29004992             0.40638409211D-01
     42.251176346            0.18025593888
     11.676557932            0.46315121755
      3.5930506482           0.44087173314
S    1   1.00
      0.40245147363          1.0000000
S    1   1.00
      0.13090182668          1.0000000
P    3   1.00
      9.4680970621           0.38387871728D-01
      2.0103545142           0.21117025112
      0.54771004707          0.51328172114
P    1   1.00
      0.15268613795          1.0000000
D    1   1.00
      0.8000000              1.0000000
****
N     0
S    5   1.00
   1712.8415853             -0.53934125305D-02
    257.64812677            -0.40221581118D-01
     58.458245853           -0.17931144990
     16.198367905           -0.46376317823
      5.0052600809          -0.44171422662
S    1   1.00
      0.58731856571          1.0000000
S    1   1.00
      0.18764592253          1.0000000
P    3   1.00
     13.571470233           -0.40072398852D-01
      2.9257372874          -0.21807045028
      0.79927750754         -0.51294466049
P    1   1.00
      0.21954348034          1.0000000
D    1   1.00
      1.0000000              1.0000000
****
O     0
S    5   1.00
   2266.1767785             -0.53431809926D-02
    340.87010191            -0.39890039230D-01
     77.363135167           -0.17853911985
     21.479644940           -0.46427684959
      6.6589433124          -0.44309745172
S    1   1.00
      0.80975975668          1.0000000
S    1   1.00
      0.25530772234          1.0000000
P    3   1.00
     17.721504317            0.43394573193D-01
      3.8635505440           0.23094120765
      1.0480920883           0.51375311064
P    1   1.00
      0.27641544411          1.0000000
D    1   1.00
      1.2000000              1.0000000
****
F     0
S    5   1.00
   2894.8325990             -0.53408255515D-02
    435.41939120            -0.39904258866D-01
     98.843328866           -0.17912768038
     27.485198001           -0.46758090825
      8.5405498171          -0.44653131020
S    1   1.00
      1.0654578038           1.0000000
S    1   1.00
      0.33247346748          1.0000000
P    3   1.00
     22.696633924           -0.45212874436D-01
      4.9872339257          -0.23754317067
      1.3491613954          -0.51287353587
P    1   1.00
      0.34829881977          1.0000000
D    1   1.00
      1.4000000              1.0000000
****
S     0
S    5   1.00
   9184.9303010             -0.22294387756D-02
   1381.5105503             -0.16683029937D-01
    313.87147580            -0.75262436116D-01
     88.053870623           -0.19376827038
     27.039914905           -0.17718020803
S    3   1.00
     45.648731303           -0.10736062573
      4.9664522326           0.65066293018
      2.0116242047           0.59712155354
S    1   1.00
      0.35661077013          1.0000000
S    1   1.00
      0.13507221477          1.0000000
P    5   1.00
    261.98233439            -0.92729929822D-02
     61.306894736           -0.66547669241D-01
     19.103729887           -0.24828595903
      6.6567720378          -0.48703847402
      2.3959635161          -0.39337850312
P    1   1.00
      0.61776161679          1.0000000
P    1   1.00
      0.16993376871          1.0000000
D    1   1.00
      0.5500000              1.0000000
****
Sc     0
S    8   1.00
 191612.9187400              0.23076475942D-03
  28723.8503630              0.17890329946D-02
   6537.0116490              0.92990401140D-02
   1850.3097171              0.37739438011D-01
    602.38855156             0.12227148359
    216.17324766             0.28814821470
     83.712517880            0.40517543099
     32.908707189            0.20566019623
S    4   1.00
    211.34393234            -0.24527991462D-01
     65.128920139           -0.11570158142
     10.034311535            0.55995283317
      4.1596884597           0.56087765073
S    2   1.00
      6.0009041613          -0.22840494325
      0.98255784150          0.71948970378
S    1   1.00
      0.42483192773          1.0000000
S    1   1.00
      0.77185462096D-01      1.0000000
S    1   1.00
      0.30147219702D-01      1.0000000
P    6   1.00
    947.34122823             0.24737208744D-02
    224.09699732             0.19742967060D-01
     71.560334882            0.90357147549D-01
     26.444824490            0.25201602503
     10.393798285            0.39675535929
      4.1606304559           0.23208624517
P    3   1.00
     15.565737135           -0.27129423974D-01
      2.1121544865           0.55109256629
      0.84184709021          1.0090635806
P    1   1.00
      0.32297542652          1.0000000
P    1   1.00
      0.0897480              1.0000000
D    4   1.00
     30.989390993            0.11902837431D-01
      8.6905465069           0.67655856850D-01
      2.9520256337           0.21332539722
      1.0761910745           0.38391075578
D    1   1.00
      0.38338915095           .43354716259
D    1   1.00
      0.12534686113           .24509263822
D    1   1.00
      0.0410000              1.0000000
F    1   1.00
      0.3450000              1.0000000
****





























































