%chk=i2.chk
%mem=616Gb
%nprocshared=24
#P  MN15/gen scf=(maxcyc=500) opt scrf=(smd,solvent=DiChloroEthane)  

Opt

0 1
C                  4.43299825   -1.51035693    0.51225616
 C                  3.81643344   -2.65130198    0.00137281
 C                  4.31808043   -3.91438138    0.26233715
 C                  5.49021919   -4.03806541    1.00500622
 C                  6.15377132   -2.89317997    1.48617670
 C                  5.62056032   -1.61567812    1.25400317
 C                  1.26348769    0.50417291    0.54600153
 C                  0.89400968    0.51554154   -0.91271872
 C                  0.23647987    0.99230834    1.49097133
 H                  2.92814281   -2.54751585   -0.62154998
 H                  3.80483843   -4.78860154   -0.09305858
 H                  5.89031824   -5.01186369    1.23001496
 H                  7.06522027   -2.98236972    2.04129283
 H                  6.11608888   -0.74519768    1.60088995
 O                 -0.79638534    0.22481453    1.64508592
 O                 -0.06178893   -0.26857096   -1.26175519
 O                  1.40266735    1.18564042   -1.85809696
 O                  0.26302907    2.05750755    2.15377685
 C                  1.05196262    0.84106474   -3.23213239
 C                 -0.95090112    2.37911559    2.87944344
 H                  1.80196227    1.24467809   -3.87806320
 H                  0.08673158    1.25684492   -3.48316766
 H                  1.00255228   -0.23745465   -3.36073592
 H                 -0.94128502    3.41789784    3.12775740
 H                 -1.00939977    1.78639858    3.78220113
 H                 -1.81775092    2.15804838    2.26865633
 O                 -3.43858023    0.17072474    0.99008733
 O                 -2.72279885    0.12848758   -1.78684294
 O                 -0.49119957   -2.35562191    0.30722267
 S                 -1.09949239   -3.28432257   -0.62051138
 S                 -3.86481452   -0.97747231    1.72729766
 S                 -2.58557068    1.59624470   -1.38608631
 O                 -2.18284598   -2.39826231   -1.19050708
 O                 -1.63243198   -4.48230636    0.05641110
 O                 -2.80904271   -1.89534254    1.36285522
 O                 -4.00748457   -0.75959535    3.18851508
 O                 -1.73211148    1.45297304   -0.17906267
 O                 -1.93954443    2.38719952   -2.34654125
 C                 -4.15011269    2.31463543   -0.93737145
 C                 -5.36539285   -1.51177131    1.03487786
 C                  0.02724815   -3.81173560   -1.86432800
 F                 -3.89038234    3.48977385   -0.14288273
 F                 -4.88184026    1.38843037   -0.14972408
 F                 -4.82020301    2.63591780   -2.10120244
 F                 -5.17076162   -1.68893264   -0.29367302
 F                 -6.31195379   -0.57382198    1.22559035
 F                 -5.75298804   -2.67432351    1.58675438
 F                  0.62289560   -2.74448292   -2.42616460
 F                 -0.65657047   -4.49627446   -2.80204065
 F                  0.96669612   -4.60975606   -1.31257555
 C                  3.70091254   -0.19649138    0.18556652
 H                  3.42012332   -0.24273174   -0.81831285
 C                  4.59327662    1.06007345    0.46642193
 C                  5.81470501    0.99925413   -0.45634546
 C                  5.00327723    1.14808246    1.90894226
 C                  1.93140700    3.77390222   -0.11963024
 C                  4.18746747    4.55819842   -0.67246462
 C                  2.68325494    4.74431072   -0.66561002
 H                  0.84951984    3.86277700   -0.05956507
 H                  4.80460683    5.36532733   -0.99182316
 H                  2.23826772    5.62903512   -1.04339441
 N                  6.74978604    0.84946860   -1.12272337
 N                  5.31466719    1.21492094    3.00447394
 N                  3.95217397    2.36422452    0.16739541
 N                  4.73619832    3.44511652   -0.29427015
 Sc                -1.73689804   -0.64198087   -0.00914812
 C                  2.44891763   -0.22414075    1.08095696
 H                  2.01644062   -1.19210084    1.05403317
 H                  2.72009517    0.04910087    2.09415556
 C                  2.67328034    2.54818527    0.36360935
 H                  2.19447360    1.83987636    0.94122391

H     0
S    3   1.00
     13.0107010              0.19682158D-01
      1.9622572              0.13796524
      0.44453796             0.47831935
S    1   1.00
      0.12194962             1.0000000
P    1   1.00
      0.8000000              1.0000000
****
C     0
S    5   1.00
   1238.4016938              0.54568832082D-02
    186.29004992             0.40638409211D-01
     42.251176346            0.18025593888
     11.676557932            0.46315121755
      3.5930506482           0.44087173314
S    1   1.00
      0.40245147363          1.0000000
S    1   1.00
      0.13090182668          1.0000000
P    3   1.00
      9.4680970621           0.38387871728D-01
      2.0103545142           0.21117025112
      0.54771004707          0.51328172114
P    1   1.00
      0.15268613795          1.0000000
D    1   1.00
      0.8000000              1.0000000
****
N     0
S    5   1.00
   1712.8415853             -0.53934125305D-02
    257.64812677            -0.40221581118D-01
     58.458245853           -0.17931144990
     16.198367905           -0.46376317823
      5.0052600809          -0.44171422662
S    1   1.00
      0.58731856571          1.0000000
S    1   1.00
      0.18764592253          1.0000000
P    3   1.00
     13.571470233           -0.40072398852D-01
      2.9257372874          -0.21807045028
      0.79927750754         -0.51294466049
P    1   1.00
      0.21954348034          1.0000000
D    1   1.00
      1.0000000              1.0000000
****
O     0
S    5   1.00
   2266.1767785             -0.53431809926D-02
    340.87010191            -0.39890039230D-01
     77.363135167           -0.17853911985
     21.479644940           -0.46427684959
      6.6589433124          -0.44309745172
S    1   1.00
      0.80975975668          1.0000000
S    1   1.00
      0.25530772234          1.0000000
P    3   1.00
     17.721504317            0.43394573193D-01
      3.8635505440           0.23094120765
      1.0480920883           0.51375311064
P    1   1.00
      0.27641544411          1.0000000
D    1   1.00
      1.2000000              1.0000000
****
F     0
S    5   1.00
   2894.8325990             -0.53408255515D-02
    435.41939120            -0.39904258866D-01
     98.843328866           -0.17912768038
     27.485198001           -0.46758090825
      8.5405498171          -0.44653131020
S    1   1.00
      1.0654578038           1.0000000
S    1   1.00
      0.33247346748          1.0000000
P    3   1.00
     22.696633924           -0.45212874436D-01
      4.9872339257          -0.23754317067
      1.3491613954          -0.51287353587
P    1   1.00
      0.34829881977          1.0000000
D    1   1.00
      1.4000000              1.0000000
****
S     0
S    5   1.00
   9184.9303010             -0.22294387756D-02
   1381.5105503             -0.16683029937D-01
    313.87147580            -0.75262436116D-01
     88.053870623           -0.19376827038
     27.039914905           -0.17718020803
S    3   1.00
     45.648731303           -0.10736062573
      4.9664522326           0.65066293018
      2.0116242047           0.59712155354
S    1   1.00
      0.35661077013          1.0000000
S    1   1.00
      0.13507221477          1.0000000
P    5   1.00
    261.98233439            -0.92729929822D-02
     61.306894736           -0.66547669241D-01
     19.103729887           -0.24828595903
      6.6567720378          -0.48703847402
      2.3959635161          -0.39337850312
P    1   1.00
      0.61776161679          1.0000000
P    1   1.00
      0.16993376871          1.0000000
D    1   1.00
      0.5500000              1.0000000
****
Sc     0
S    8   1.00
 191612.9187400              0.23076475942D-03
  28723.8503630              0.17890329946D-02
   6537.0116490              0.92990401140D-02
   1850.3097171              0.37739438011D-01
    602.38855156             0.12227148359
    216.17324766             0.28814821470
     83.712517880            0.40517543099
     32.908707189            0.20566019623
S    4   1.00
    211.34393234            -0.24527991462D-01
     65.128920139           -0.11570158142
     10.034311535            0.55995283317
      4.1596884597           0.56087765073
S    2   1.00
      6.0009041613          -0.22840494325
      0.98255784150          0.71948970378
S    1   1.00
      0.42483192773          1.0000000
S    1   1.00
      0.77185462096D-01      1.0000000
S    1   1.00
      0.30147219702D-01      1.0000000
P    6   1.00
    947.34122823             0.24737208744D-02
    224.09699732             0.19742967060D-01
     71.560334882            0.90357147549D-01
     26.444824490            0.25201602503
     10.393798285            0.39675535929
      4.1606304559           0.23208624517
P    3   1.00
     15.565737135           -0.27129423974D-01
      2.1121544865           0.55109256629
      0.84184709021          1.0090635806
P    1   1.00
      0.32297542652          1.0000000
P    1   1.00
      0.0897480              1.0000000
D    4   1.00
     30.989390993            0.11902837431D-01
      8.6905465069           0.67655856850D-01
      2.9520256337           0.21332539722
      1.0761910745           0.38391075578
D    1   1.00
      0.38338915095           .43354716259
D    1   1.00
      0.12534686113           .24509263822
D    1   1.00
      0.0410000              1.0000000
F    1   1.00
      0.3450000              1.0000000
****





























































