%chk=i3-minor.chk
%mem=92Gb
%nprocshared=24
#P  UMN15/genecp scf=(maxcyc=500) opt freq scrf=(smd,solvent=DiChloroEthane)  

Opt

0 1
    C          2.212097   -1.010477   -0.689437
    C          1.834502   -0.164792    0.548286
    C          0.939330   -1.692168   -1.212506
    O         -0.035561   -1.020907   -1.549758
    O          0.756139    0.420703    0.637694
    O          2.742993   -0.103643    1.458830
    O          0.990439   -2.973553   -1.323598
    C          2.498317    0.734104    2.606174
    C         -0.195409   -3.640693   -1.809408
    H          3.444663    0.777850    3.153578
    H          1.710006    0.274868    3.216379
    H          2.188174    1.731380    2.267229
    H          0.026048   -4.710672   -1.772796
    H         -0.397724   -3.315416   -2.837725
    H         -1.041579   -3.388519   -1.156099
    O         -3.000419   -1.414770   -0.572027
    O         -1.704685   -0.168649    2.119180
    O         -0.835682    2.273054   -0.853742
    S         -2.026513    2.946336   -0.244761
    S         -3.319459   -0.975173   -1.973447
    S         -0.976474   -1.463122    2.332866
    O         -2.817910    1.837924    0.382768
    O         -2.727607    3.927529   -1.024801
    O         -2.518761    0.270227   -2.173728
    O         -3.278733   -1.982341   -3.000684
    O         -0.603255   -1.943774    0.971130
    O          0.054116   -1.480512    3.342978
    C         -2.277942   -2.628564    2.912795
    C         -5.065260   -0.401145   -1.874081
    C         -1.333292    3.811453    1.228219
    F         -1.770264   -3.846036    2.935068
    F         -3.307534   -2.587554    2.094039
    F         -2.652856   -2.277057    4.126410
    F         -5.183946    0.482664   -0.904020
    F         -5.838717   -1.441060   -1.629573
    F         -5.400536    0.147045   -3.024889
    F         -0.506378    2.984174    1.849630
    F         -2.317444    4.144670    2.037634
    F         -0.683052    4.894319    0.848875
    C          3.736209    0.588520   -1.757985
    C          4.888576   -0.442307   -1.573995
    C          6.220999    0.189808   -1.535980
    C          4.882820   -1.321267   -2.780515
    C          3.251351   -2.885377    0.766539
    C          5.296431   -1.925602    1.652646
    C          4.167240   -2.846433    1.744260
    H          2.399701   -3.568271    0.795694
    H          6.030563   -1.852892    2.458248
    H          4.088720   -3.500650    2.614050
    N          7.257851    0.697352   -1.604971
    N          4.868486   -2.012275   -3.708372
    N          4.624590   -1.248302   -0.400313
    N          5.499026   -1.184398    0.620817
    C          3.374880   -2.003112   -0.444908
    H          3.374247   -2.635782   -1.355095
    H          3.809779    0.997159   -2.776782
    C          3.663297    1.744569   -0.776211
    C          2.551140    2.585549   -0.935209
    C          4.592527    2.023442    0.234271
    C          2.377771    3.698813   -0.114432
    H          1.811143    2.358521   -1.707218
    C          4.428391    3.153188    1.041171
    H          5.438388    1.361749    0.427525
    C          3.327961    3.994779    0.867076
    H          1.504862    4.338680   -0.252742
    H          5.164131    3.365234    1.819874
    H          3.204208    4.874106    1.503127
   Lu         -1.366201    0.130943   -0.129895
    O          2.525092   -0.164261   -1.781559

H     0
S    3   1.00
     13.0107010              0.19682158D-01
      1.9622572              0.13796524
      0.44453796             0.47831935
S    1   1.00
      0.12194962             1.0000000
P    1   1.00
      0.8000000              1.0000000
****
C     0
S    5   1.00
   1238.4016938              0.54568832082D-02
    186.29004992             0.40638409211D-01
     42.251176346            0.18025593888
     11.676557932            0.46315121755
      3.5930506482           0.44087173314
S    1   1.00
      0.40245147363          1.0000000
S    1   1.00
      0.13090182668          1.0000000
P    3   1.00
      9.4680970621           0.38387871728D-01
      2.0103545142           0.21117025112
      0.54771004707          0.51328172114
P    1   1.00
      0.15268613795          1.0000000
D    1   1.00
      0.8000000              1.0000000
****
N     0
S    5   1.00
   1712.8415853             -0.53934125305D-02
    257.64812677            -0.40221581118D-01
     58.458245853           -0.17931144990
     16.198367905           -0.46376317823
      5.0052600809          -0.44171422662
S    1   1.00
      0.58731856571          1.0000000
S    1   1.00
      0.18764592253          1.0000000
P    3   1.00
     13.571470233           -0.40072398852D-01
      2.9257372874          -0.21807045028
      0.79927750754         -0.51294466049
P    1   1.00
      0.21954348034          1.0000000
D    1   1.00
      1.0000000              1.0000000
****
O     0
S    5   1.00
   2266.1767785             -0.53431809926D-02
    340.87010191            -0.39890039230D-01
     77.363135167           -0.17853911985
     21.479644940           -0.46427684959
      6.6589433124          -0.44309745172
S    1   1.00
      0.80975975668          1.0000000
S    1   1.00
      0.25530772234          1.0000000
P    3   1.00
     17.721504317            0.43394573193D-01
      3.8635505440           0.23094120765
      1.0480920883           0.51375311064
P    1   1.00
      0.27641544411          1.0000000
D    1   1.00
      1.2000000              1.0000000
****
F     0
S    5   1.00
   2894.8325990             -0.53408255515D-02
    435.41939120            -0.39904258866D-01
     98.843328866           -0.17912768038
     27.485198001           -0.46758090825
      8.5405498171          -0.44653131020
S    1   1.00
      1.0654578038           1.0000000
S    1   1.00
      0.33247346748          1.0000000
P    3   1.00
     22.696633924           -0.45212874436D-01
      4.9872339257          -0.23754317067
      1.3491613954          -0.51287353587
P    1   1.00
      0.34829881977          1.0000000
D    1   1.00
      1.4000000              1.0000000
****
S     0
S    5   1.00
   9184.9303010             -0.22294387756D-02
   1381.5105503             -0.16683029937D-01
    313.87147580            -0.75262436116D-01
     88.053870623           -0.19376827038
     27.039914905           -0.17718020803
S    3   1.00
     45.648731303           -0.10736062573
      4.9664522326           0.65066293018
      2.0116242047           0.59712155354
S    1   1.00
      0.35661077013          1.0000000
S    1   1.00
      0.13507221477          1.0000000
P    5   1.00
    261.98233439            -0.92729929822D-02
     61.306894736           -0.66547669241D-01
     19.103729887           -0.24828595903
      6.6567720378          -0.48703847402
      2.3959635161          -0.39337850312
P    1   1.00
      0.61776161679          1.0000000
P    1   1.00
      0.16993376871          1.0000000
D    1   1.00
      0.5500000              1.0000000
****
Lu     0
S    5   1.00
  95169.767000               0.22000000000D-04
  15488.403000               0.14500000000D-03
   3776.2335000              0.65100000000D-03
   1079.0501000              0.20380000000D-02
    268.95380000             0.51270000000D-02
S    1   1.00
     63.467900000            1.0000000
S    1   1.00
     45.133200000            1.0000000
S    1   1.00
     21.456800000            1.0000000
S    1   1.00
      5.3483000000           1.0000000
S    1   1.00
      2.6778000000           1.0000000
S    1   1.00
      1.0287000000           1.0000000
S    1   1.00
      0.44080000000          1.0000000
S    1   1.00
      0.79100000000D-01      1.0000000
S    1   1.00
      0.31300000000D-01      1.0000000
P    3   1.00
     12.333733920           -0.15313031066
     11.080331415           -0.20300664852
      2.0341747228          -0.19458361263
P    6   1.00
   1500.5317313             -0.10192569555D-02
    382.39748937            -0.59476212135D-02
    132.99969628            -0.16265160929D-01
     46.110032419           -0.35623845839D-01
     15.583529011            0.23709171074
      5.7856677022          -0.30670977844
P    1   1.00
      3.7823361008           1.0000000
P    1   1.00
      1.3682592248           1.0000000
P    1   1.00
      0.57288205601          1.0000000
P    1   1.00
      0.22793165135          1.0000000
P    1   1.00
      0.81403917986D-01      1.0000000
P    1   1.00
      0.29091071778D-01      1.0000000
D    6   1.00
    484.52750000             0.22860000000D-02
    146.66550000             0.18629000000D-01
     56.377900000            0.74088000000D-01
     23.671100000            0.16155400000
      9.4401000000           0.30809100000
      4.3712000000           0.44833400000
D    1   1.00
      1.9580000000           1.0000000
D    1   1.00
      0.72720000000          1.0000000
D    1   1.00
      0.24600000000          1.0000000
D    1   1.00
      0.74400000000D-01      1.0000000
F    5   1.00
    175.15590000             0.41020000000D-02
     62.890900000            0.39086000000D-01
     28.362400000            0.14704400000
     13.247800000            0.27109200000
      6.1440000000           0.34566500000
F    1   1.00
      2.7623000000           1.0000000
F    1   1.00
      1.1574000000           1.0000000
F    1   1.00
      0.42440000000          1.0000000
G    1   1.00
      0.70090000000          1.0000000
****

Lu     0
Lu-ECP     5     28
h potential
  1
2      1.00000000             0.00000000
s-h potential
  1
2     35.16209700           989.99558400
p-h potential
  1
2     19.46440200           278.86565200
d-h potential
  1
2     10.00686500            71.00917800
f-h potential
  1
2     23.51793200           -47.40589000
g-h potential
  1
2     29.41223800           -35.55714600




