%chk=TS2.chk
%mem=92Gb
%nprocshared=24
#P UMN15/genecp scf=(maxcyc=500) irc=(maxpoints=100,recorrect=never,calcfc,maxcycles=500,nogradstop) scrf=(smd,solvent=DiChloroEthane)  

Opt

0 1
 C                 -5.63449000    0.59057400   -0.22275400
 C                 -6.52664200    0.29286100   -1.27081700
 C                 -7.82926200    0.78093900   -1.22331300
 C                 -8.24148700    1.55444800   -0.13385800
 C                 -7.35587500    1.85227300    0.91041600
 C                 -6.05040900    1.37778500    0.87048100
 C                 -2.02526500    0.39468600    0.27944600
 C                 -1.43731300    0.84584100   -0.92865600
 C                 -1.29567100   -0.07684100    1.39356900
 H                 -6.18559300   -0.30969900   -2.11543300
 H                 -8.52476100    0.56074600   -2.03507600
 H                 -9.26489300    1.93467900   -0.09797100
 H                 -7.68967500    2.45960500    1.75375200
 H                 -5.34558100    1.60175900    1.67355900
 O                 -0.05677300   -0.29330300    1.41272800
 O                 -0.20459100    0.86063800   -1.16669900
 O                 -2.29243400    1.27279800   -1.84330700
 O                 -2.03153000   -0.33257700    2.46364100
 C                 -1.77028300    1.67627700   -3.10991000
 C                 -1.37256500   -0.74896700    3.65764700
 H                 -2.63420000    1.96482000   -3.71750600
 H                 -1.23401700    0.84311100   -3.58473300
 H                 -1.08869500    2.52774800   -2.99604800
 H                 -2.16762400   -0.95591000    4.38318400
 H                 -0.71939100    0.05081200    4.03362100
 H                 -0.76958900   -1.65157200    3.48274300
 O                  2.92414700   -1.33269400    0.96066200
 O                  2.59965400   -0.15706800   -1.90869200
 O                  0.70066300    2.38983700    1.09208000
 S                  1.56671400    3.30209500    0.29586500
 S                  3.66368700   -0.49235900    1.95342900
 S                  1.93139800   -1.47300400   -2.15811500
 O                  2.38451200    2.41660400   -0.59459900
 O                  2.25942600    4.35902400    0.98666400
 O                  2.99034100    0.84040900    1.91458000
 O                  3.96145500   -1.06946900    3.23673600
 O                  0.99844300   -1.68066400   -1.01636900
 O                  1.41750900   -1.71447200   -3.48409600
 C                  3.28250000   -2.73695600   -1.90483100
 C                  5.26474600   -0.17526600    1.10760700
 C                  0.39288700    4.16056700   -0.87985600
 F                  2.84923800   -3.67853700   -1.08567800
 F                  4.35773000   -2.16829900   -1.39821200
 F                  3.58193200   -3.27637900   -3.07120400
 F                  5.00610500    0.38635700   -0.06409300
 F                  5.90468200   -1.31321400    0.92372100
 F                  6.00183900    0.63909900    1.83639000
 F                 -0.84081000    3.72166100   -0.69041100
 F                  0.75351900    3.91812600   -2.12696100
 F                  0.42978300    5.45851200   -0.65598200
 C                 -4.28410200    0.08202100   -0.29196900
 H                 -3.93653700   -0.46552000   -1.17658900
 C                 -4.56035300   -2.03067000    0.65505900
 C                 -5.57802300   -2.55046100   -0.19358100
 C                 -4.90532900   -1.60850900    1.96669700
 C                 -1.25757900   -3.60466600    1.26872600
 C                 -1.67732400   -3.19273000   -1.04401900
 C                 -0.81240600   -3.66514600   -0.03712500
 H                 -0.66060700   -3.96196000    2.10852600
 H                 -1.38892000   -3.20978400   -2.09707500
 H                  0.17216300   -4.05075500   -0.29728800
 N                 -6.41791100   -2.91649900   -0.91085200
 N                 -5.18271000   -1.18799800    3.01616100
 N                 -3.26189000   -2.63156400    0.47613600
 N                 -2.86489400   -2.68522000   -0.78842200
 C                 -2.53026600   -3.08515500    1.50546200
 H                 -2.98093400   -3.03512000    2.49810900
 Lu                 1.55896900    0.37769200    0.09301000
 O                 -3.39257100    0.62328600    0.48615100

H     0
S    3   1.00
     13.0107010              0.19682158D-01
      1.9622572              0.13796524
      0.44453796             0.47831935
S    1   1.00
      0.12194962             1.0000000
P    1   1.00
      0.8000000              1.0000000
****
C     0
S    5   1.00
   1238.4016938              0.54568832082D-02
    186.29004992             0.40638409211D-01
     42.251176346            0.18025593888
     11.676557932            0.46315121755
      3.5930506482           0.44087173314
S    1   1.00
      0.40245147363          1.0000000
S    1   1.00
      0.13090182668          1.0000000
P    3   1.00
      9.4680970621           0.38387871728D-01
      2.0103545142           0.21117025112
      0.54771004707          0.51328172114
P    1   1.00
      0.15268613795          1.0000000
D    1   1.00
      0.8000000              1.0000000
****
N     0
S    5   1.00
   1712.8415853             -0.53934125305D-02
    257.64812677            -0.40221581118D-01
     58.458245853           -0.17931144990
     16.198367905           -0.46376317823
      5.0052600809          -0.44171422662
S    1   1.00
      0.58731856571          1.0000000
S    1   1.00
      0.18764592253          1.0000000
P    3   1.00
     13.571470233           -0.40072398852D-01
      2.9257372874          -0.21807045028
      0.79927750754         -0.51294466049
P    1   1.00
      0.21954348034          1.0000000
D    1   1.00
      1.0000000              1.0000000
****
O     0
S    5   1.00
   2266.1767785             -0.53431809926D-02
    340.87010191            -0.39890039230D-01
     77.363135167           -0.17853911985
     21.479644940           -0.46427684959
      6.6589433124          -0.44309745172
S    1   1.00
      0.80975975668          1.0000000
S    1   1.00
      0.25530772234          1.0000000
P    3   1.00
     17.721504317            0.43394573193D-01
      3.8635505440           0.23094120765
      1.0480920883           0.51375311064
P    1   1.00
      0.27641544411          1.0000000
D    1   1.00
      1.2000000              1.0000000
****
F     0
S    5   1.00
   2894.8325990             -0.53408255515D-02
    435.41939120            -0.39904258866D-01
     98.843328866           -0.17912768038
     27.485198001           -0.46758090825
      8.5405498171          -0.44653131020
S    1   1.00
      1.0654578038           1.0000000
S    1   1.00
      0.33247346748          1.0000000
P    3   1.00
     22.696633924           -0.45212874436D-01
      4.9872339257          -0.23754317067
      1.3491613954          -0.51287353587
P    1   1.00
      0.34829881977          1.0000000
D    1   1.00
      1.4000000              1.0000000
****
S     0
S    5   1.00
   9184.9303010             -0.22294387756D-02
   1381.5105503             -0.16683029937D-01
    313.87147580            -0.75262436116D-01
     88.053870623           -0.19376827038
     27.039914905           -0.17718020803
S    3   1.00
     45.648731303           -0.10736062573
      4.9664522326           0.65066293018
      2.0116242047           0.59712155354
S    1   1.00
      0.35661077013          1.0000000
S    1   1.00
      0.13507221477          1.0000000
P    5   1.00
    261.98233439            -0.92729929822D-02
     61.306894736           -0.66547669241D-01
     19.103729887           -0.24828595903
      6.6567720378          -0.48703847402
      2.3959635161          -0.39337850312
P    1   1.00
      0.61776161679          1.0000000
P    1   1.00
      0.16993376871          1.0000000
D    1   1.00
      0.5500000              1.0000000
****
Lu     0
S    5   1.00
  95169.767000               0.22000000000D-04
  15488.403000               0.14500000000D-03
   3776.2335000              0.65100000000D-03
   1079.0501000              0.20380000000D-02
    268.95380000             0.51270000000D-02
S    1   1.00
     63.467900000            1.0000000
S    1   1.00
     45.133200000            1.0000000
S    1   1.00
     21.456800000            1.0000000
S    1   1.00
      5.3483000000           1.0000000
S    1   1.00
      2.6778000000           1.0000000
S    1   1.00
      1.0287000000           1.0000000
S    1   1.00
      0.44080000000          1.0000000
S    1   1.00
      0.79100000000D-01      1.0000000
S    1   1.00
      0.31300000000D-01      1.0000000
P    3   1.00
     12.333733920           -0.15313031066
     11.080331415           -0.20300664852
      2.0341747228          -0.19458361263
P    6   1.00
   1500.5317313             -0.10192569555D-02
    382.39748937            -0.59476212135D-02
    132.99969628            -0.16265160929D-01
     46.110032419           -0.35623845839D-01
     15.583529011            0.23709171074
      5.7856677022          -0.30670977844
P    1   1.00
      3.7823361008           1.0000000
P    1   1.00
      1.3682592248           1.0000000
P    1   1.00
      0.57288205601          1.0000000
P    1   1.00
      0.22793165135          1.0000000
P    1   1.00
      0.81403917986D-01      1.0000000
P    1   1.00
      0.29091071778D-01      1.0000000
D    6   1.00
    484.52750000             0.22860000000D-02
    146.66550000             0.18629000000D-01
     56.377900000            0.74088000000D-01
     23.671100000            0.16155400000
      9.4401000000           0.30809100000
      4.3712000000           0.44833400000
D    1   1.00
      1.9580000000           1.0000000
D    1   1.00
      0.72720000000          1.0000000
D    1   1.00
      0.24600000000          1.0000000
D    1   1.00
      0.74400000000D-01      1.0000000
F    5   1.00
    175.15590000             0.41020000000D-02
     62.890900000            0.39086000000D-01
     28.362400000            0.14704400000
     13.247800000            0.27109200000
      6.1440000000           0.34566500000
F    1   1.00
      2.7623000000           1.0000000
F    1   1.00
      1.1574000000           1.0000000
F    1   1.00
      0.42440000000          1.0000000
G    1   1.00
      0.70090000000          1.0000000
****

Lu     0
Lu-ECP     5     28
h potential
  1
2      1.00000000             0.00000000
s-h potential
  1
2     35.16209700           989.99558400
p-h potential
  1
2     19.46440200           278.86565200
d-h potential
  1
2     10.00686500            71.00917800
f-h potential
  1
2     23.51793200           -47.40589000
g-h potential
  1
2     29.41223800           -35.55714600


