%chk=i3-major.chk
%mem=616Gb
%nprocshared=24
#P  UMN15/genecp scf=(maxcyc=500) opt scrf=(smd,solvent=DiChloroEthane)  

Opt

0 2
 C                  4.54699900    1.18469500   -0.71660000
 C                  4.38035674    2.25555752    0.17640096
 C                  4.96356357    3.48933865   -0.09685669
 C                  5.71819022    3.66237115   -1.26225129
 C                  5.88383039    2.59950980   -2.14928905
 C                  5.29805786    1.35804560   -1.88133923
 C                  2.60777410   -1.84723024   -1.30152828
 C                  1.30562875   -1.24475669   -0.72677638
 C                  2.38031582   -2.36295224   -2.73615335
 H                  3.78284526    2.11601969    1.08277957
 H                  4.82940650    4.31599962    0.60331246
 H                  6.17679609    4.62991061   -1.47741297
 H                  6.46985623    2.72945388   -3.06120088
 H                  5.44887106    0.54779461   -2.59762840
 O                  1.88389491   -1.65521522   -3.58537576
 O                  0.65149615   -0.42773954   -1.33917562
 O                  1.06376464   -1.61848692    0.50157338
 O                  2.83944183   -3.56641704   -2.92734905
 C                 -0.08303309   -1.04664165    1.16057226
 C                  2.58699089   -4.15065610   -4.21921287
 H                 -0.20286168   -1.60121072    2.09620164
 H                 -0.97075753   -1.15883389    0.52706919
 H                  0.10929916    0.01621931    1.35857706
 H                  2.96458460   -5.17602450   -4.16831776
 H                  3.11840945   -3.58066577   -4.99243956
 H                  1.50531111   -4.13074760   -4.41180721
 O                 -0.67232018   -3.11406562   -4.74711925
 O                 -1.93827573   -2.13089167   -1.77257542
 O                  0.64573480    1.24989018   -3.97285372
 S                 -0.55486807    2.08162683   -3.72905982
 S                 -0.91749290   -2.47768815   -6.06703439
 S                 -1.16686834   -3.34284482   -1.40487061
 O                 -1.65327446    1.21784670   -3.21832206
 O                 -0.91006378    3.04830507   -4.74661981
 O                 -0.66079348   -1.01968598   -5.95523767
 O                 -0.40514405   -3.15828614   -7.23485401
 O                  0.20110135   -3.26406106   -1.98006559
 O                 -1.22406580   -3.75316285   -0.01304731
 C                 -1.98810908   -4.72589647   -2.35099968
 C                 -2.74828431   -2.54600008   -6.18108937
 C                 -0.10149516    3.11594831   -2.27785318
 F                 -1.07054442   -5.47867630   -2.92953865
 F                 -2.81257999   -4.24456184   -3.26093085
 F                 -2.67847351   -5.46705357   -1.49881333
 F                 -3.25451558   -1.92433927   -5.11827635
 F                 -3.16489106   -3.80073961   -6.18605960
 F                 -3.17393534   -1.94005671   -7.27619983
 F                  0.14283241    2.36766982   -1.21299964
 F                 -1.09378872    3.94699070   -1.99961514
 F                  0.98544595    3.82229822   -2.56232628
 C                  3.86638700   -0.09505100   -0.30037800
 H                  2.95994725    0.15960999    0.28132971
 C                  4.65395848   -1.09668529    0.61236311
 C                  4.97218999   -0.48680742    1.91302112
 C                  5.87794394   -1.56919513   -0.06924680
 C                  2.35233645   -4.07373375   -0.02819401
 C                  2.67144161   -3.60351829    2.29234098
 C                  2.10335152   -4.40486819    1.27196291
 H                  1.93013649   -4.63385292   -0.86362579
 H                  2.48451403   -3.79625553    3.35037824
 H                  1.46961570   -5.25260318    1.53272613
 N                  5.24430481    0.05775970    2.89545856
 N                  6.81892363   -1.95265215   -0.62095818
 N                  3.75266342   -2.26139900    0.82070665
 N                  3.47222393   -2.57177411    2.04286474
 C                  3.23446627   -2.93282494   -0.36983516
 H                  4.09692767   -3.32597651   -0.94879323
 Yb                -0.49474820   -0.95580968   -3.47007584
 O                  3.53604476   -0.81163740   -1.46782234

H     0
S    3   1.00
     13.0107010              0.19682158D-01
      1.9622572              0.13796524
      0.44453796             0.47831935
S    1   1.00
      0.12194962             1.0000000
P    1   1.00
      0.8000000              1.0000000
****
C     0
S    5   1.00
   1238.4016938              0.54568832082D-02
    186.29004992             0.40638409211D-01
     42.251176346            0.18025593888
     11.676557932            0.46315121755
      3.5930506482           0.44087173314
S    1   1.00
      0.40245147363          1.0000000
S    1   1.00
      0.13090182668          1.0000000
P    3   1.00
      9.4680970621           0.38387871728D-01
      2.0103545142           0.21117025112
      0.54771004707          0.51328172114
P    1   1.00
      0.15268613795          1.0000000
D    1   1.00
      0.8000000              1.0000000
****
N     0
S    5   1.00
   1712.8415853             -0.53934125305D-02
    257.64812677            -0.40221581118D-01
     58.458245853           -0.17931144990
     16.198367905           -0.46376317823
      5.0052600809          -0.44171422662
S    1   1.00
      0.58731856571          1.0000000
S    1   1.00
      0.18764592253          1.0000000
P    3   1.00
     13.571470233           -0.40072398852D-01
      2.9257372874          -0.21807045028
      0.79927750754         -0.51294466049
P    1   1.00
      0.21954348034          1.0000000
D    1   1.00
      1.0000000              1.0000000
****
O     0
S    5   1.00
   2266.1767785             -0.53431809926D-02
    340.87010191            -0.39890039230D-01
     77.363135167           -0.17853911985
     21.479644940           -0.46427684959
      6.6589433124          -0.44309745172
S    1   1.00
      0.80975975668          1.0000000
S    1   1.00
      0.25530772234          1.0000000
P    3   1.00
     17.721504317            0.43394573193D-01
      3.8635505440           0.23094120765
      1.0480920883           0.51375311064
P    1   1.00
      0.27641544411          1.0000000
D    1   1.00
      1.2000000              1.0000000
****
F     0
S    5   1.00
   2894.8325990             -0.53408255515D-02
    435.41939120            -0.39904258866D-01
     98.843328866           -0.17912768038
     27.485198001           -0.46758090825
      8.5405498171          -0.44653131020
S    1   1.00
      1.0654578038           1.0000000
S    1   1.00
      0.33247346748          1.0000000
P    3   1.00
     22.696633924           -0.45212874436D-01
      4.9872339257          -0.23754317067
      1.3491613954          -0.51287353587
P    1   1.00
      0.34829881977          1.0000000
D    1   1.00
      1.4000000              1.0000000
****
S     0
S    5   1.00
   9184.9303010             -0.22294387756D-02
   1381.5105503             -0.16683029937D-01
    313.87147580            -0.75262436116D-01
     88.053870623           -0.19376827038
     27.039914905           -0.17718020803
S    3   1.00
     45.648731303           -0.10736062573
      4.9664522326           0.65066293018
      2.0116242047           0.59712155354
S    1   1.00
      0.35661077013          1.0000000
S    1   1.00
      0.13507221477          1.0000000
P    5   1.00
    261.98233439            -0.92729929822D-02
     61.306894736           -0.66547669241D-01
     19.103729887           -0.24828595903
      6.6567720378          -0.48703847402
      2.3959635161          -0.39337850312
P    1   1.00
      0.61776161679          1.0000000
P    1   1.00
      0.16993376871          1.0000000
D    1   1.00
      0.5500000              1.0000000
****
Yb     0
S    5   1.00
  91972.903000               0.51000000000D-04
  13787.371000               0.38600000000D-03
   3123.6135000              0.18440000000D-02
    871.47540000             0.53560000000D-02
    250.46300000             0.88590000000D-02
S    1   1.00
     58.282700000            1.0000000
S    1   1.00
     41.630500000            1.0000000
S    1   1.00
     20.216400000            1.0000000
S    1   1.00
      4.9972000000           1.0000000
S    1   1.00
      2.4822000000           1.0000000
S    1   1.00
      0.91790000000          1.0000000
S    1   1.00
      0.38530000000          1.0000000
S    1   1.00
      0.61400000000D-01      1.0000000
S    1   1.00
      0.25000000000D-01      1.0000000
P    3   1.00
     12.274108000           -0.15252141000
     10.695631000           -0.20243492000
      2.0359782000          -0.19621046000
P    6   1.00
   1497.5567000             -0.10182934000D-02
    375.04101000            -0.60919401000D-02
    128.69727000            -0.17077693000D-01
     45.270759000           -0.35655508000D-01
     14.906971000            0.23732226000
      5.6450858000          -0.30559689000
P    1   1.00
      3.6752106000           1.0000000
P    1   1.00
      1.3296961000           1.0000000
P    1   1.00
      0.55338966000          1.0000000
P    1   1.00
      0.22382350000          1.0000000
P    1   1.00
      0.68350467650D-01      1.0000000
P    1   1.00
      0.25355670803D-01      1.0000000
D    6   1.00
    469.76060000             0.19840000000D-02
    142.61280000             0.16013000000D-01
     55.126700000            0.63153000000D-01
     23.441500000            0.13780000000
      9.4951000000           0.28549800000
      4.5792000000           0.43830900000
D    1   1.00
      2.1646000000           1.0000000
D    1   1.00
      0.92380000000          1.0000000
D    1   1.00
      0.31070000000          1.0000000
D    1   1.00
      0.91400000000D-01      1.0000000
F    5   1.00
    142.02930000             0.59570000000D-02
     51.086200000            0.53180000000D-01
     22.874100000            0.17807600000
     10.502500000            0.30060000000
      4.7872000000           0.35034200000
F    1   1.00
      2.1088000000           1.0000000
F    1   1.00
      0.86090000000          1.0000000
F    1   1.00
      0.30600000000          1.0000000
G    1   1.00
      0.51330000000          1.0000000
****

Yb     0
Yb-ECP     5     28
h potential
  1
2      1.00000000             0.00000000
s-h potential
  1
2     32.42448400           891.01377700
p-h potential
  1
2     18.65623200           264.03695300
d-h potential
  1
2     10.49022200            73.92391900
f-h potential
  1
2     20.77418300           -39.59217300
g-h potential
  1
2     28.43102800           -34.63863800





























































