%chk=cycloadduct.chk
%mem=616Gb
%nprocshared=24
#P  UMN15/genecp scf=(maxcyc=500) freq scrf=(smd,solvent=DiChloroEthane)  

freq

0 2
C                 -4.2655650000     -0.7476330000     -0.7411700000
C                 -5.0680820000     -0.0959880000     -1.7346460000
C                 -5.9746390000      0.8543570000     -1.3403170000
C                 -6.1038370000      1.1681720000      0.0414930000
C                 -5.3366230000      0.4964320000      1.0351810000
C                 -4.4399710000     -0.4659070000      0.6518340000
C                 -3.2722180000     -1.7616040000     -1.1073200000
C                 -1.9592710000     -1.4394590000     -1.7877520000
O                 -3.0305650000     -2.0277400000     -2.4530500000
C                 -0.8269450000     -2.3542770000     -1.3707620000
C                 -1.5819260000     -0.0229440000     -2.1633570000
H                 -4.9380010000     -0.3747020000     -2.7806400000
H                 -6.6015590000      1.3690450000     -2.0693830000
H                 -6.8213510000      1.9314980000      0.3494660000
H                 -5.4723710000      0.7498010000      2.0872490000
H                 -3.8425410000     -1.0180220000      1.3762130000
H                 -3.2008290000     -2.6118610000     -0.4109890000
O                 -0.4929890000      0.4633610000     -1.9375600000
O                  0.2261660000     -1.9495520000     -0.9223170000
Yb                 0.9834320000      0.2535030000      0.0399850000
O                 -1.1401050000     -3.6164610000     -1.4889600000
O                 -2.5561970000      0.6145640000     -2.7583110000
C                 -0.1915370000     -4.5464120000     -0.9441750000
C                 -2.3217660000      1.9949260000     -3.0851950000
H                 -0.6302920000     -5.5408790000     -1.0686370000
H                 -0.0337010000     -4.3176060000      0.1187020000
H                  0.7605310000     -4.4728250000     -1.4856430000
H                 -3.2961900000      2.4146640000     -3.3549570000
H                 -1.6293520000      2.0576480000     -3.9350040000
H                 -1.8889670000      2.5176630000     -2.2220950000
O                 -0.3328600000      2.4520430000      0.2179990000
O                  0.5171660000     -1.5107360000      1.9115620000
O                  2.7443950000     -0.5072380000     -1.5894130000
S                  3.8396200000     -0.6008680000     -0.5975870000
S                  0.6528200000      3.2596980000     -0.5388850000
S                 -0.9505260000     -1.4268870000      1.8043950000
O                  3.3540000000     -0.1338100000      0.7265000000
O                  5.1517490000     -0.1492990000     -1.0102550000
O                  1.7863970000      2.4021050000     -0.9605030000
O                  0.1214850000      4.1863960000     -1.5199450000
O                 -1.3514960000     -0.3117820000      0.9079010000
O                 -1.6835920000     -2.6705010000      1.5876820000
C                 -1.4656160000     -0.8442890000      3.4689240000
C                  1.4090550000      4.3099290000      0.7632500000
C                  4.0207760000     -2.4120080000     -0.3488620000
F                 -2.7843370000     -0.6963030000      3.5116390000
F                 -0.8935870000      0.3215930000      3.7217570000
F                 -1.0998110000     -1.7211950000      4.3862660000
F                  1.9231360000      3.5335500000      1.7110680000
F                  0.4917600000      5.0968380000      1.3057150000
F                  2.3727110000      5.0579480000      0.2509190000
F                  2.8781800000     -2.9293680000      0.0819650000
F                  4.9671960000     -2.6560430000      0.5456950000
F                  4.3496810000     -2.9949400000     -1.4931780000

H     0
S    3   1.00
     13.0107010              0.19682158D-01
      1.9622572              0.13796524
      0.44453796             0.47831935
S    1   1.00
      0.12194962             1.0000000
P    1   1.00
      0.8000000              1.0000000
****
C     0
S    5   1.00
   1238.4016938              0.54568832082D-02
    186.29004992             0.40638409211D-01
     42.251176346            0.18025593888
     11.676557932            0.46315121755
      3.5930506482           0.44087173314
S    1   1.00
      0.40245147363          1.0000000
S    1   1.00
      0.13090182668          1.0000000
P    3   1.00
      9.4680970621           0.38387871728D-01
      2.0103545142           0.21117025112
      0.54771004707          0.51328172114
P    1   1.00
      0.15268613795          1.0000000
D    1   1.00
      0.8000000              1.0000000
****
O     0
S    5   1.00
   2266.1767785             -0.53431809926D-02
    340.87010191            -0.39890039230D-01
     77.363135167           -0.17853911985
     21.479644940           -0.46427684959
      6.6589433124          -0.44309745172
S    1   1.00
      0.80975975668          1.0000000
S    1   1.00
      0.25530772234          1.0000000
P    3   1.00
     17.721504317            0.43394573193D-01
      3.8635505440           0.23094120765
      1.0480920883           0.51375311064
P    1   1.00
      0.27641544411          1.0000000
D    1   1.00
      1.2000000              1.0000000
****
F     0
S    5   1.00
   2894.8325990             -0.53408255515D-02
    435.41939120            -0.39904258866D-01
     98.843328866           -0.17912768038
     27.485198001           -0.46758090825
      8.5405498171          -0.44653131020
S    1   1.00
      1.0654578038           1.0000000
S    1   1.00
      0.33247346748          1.0000000
P    3   1.00
     22.696633924           -0.45212874436D-01
      4.9872339257          -0.23754317067
      1.3491613954          -0.51287353587
P    1   1.00
      0.34829881977          1.0000000
D    1   1.00
      1.4000000              1.0000000
****
S     0
S    5   1.00
   9184.9303010             -0.22294387756D-02
   1381.5105503             -0.16683029937D-01
    313.87147580            -0.75262436116D-01
     88.053870623           -0.19376827038
     27.039914905           -0.17718020803
S    3   1.00
     45.648731303           -0.10736062573
      4.9664522326           0.65066293018
      2.0116242047           0.59712155354
S    1   1.00
      0.35661077013          1.0000000
S    1   1.00
      0.13507221477          1.0000000
P    5   1.00
    261.98233439            -0.92729929822D-02
     61.306894736           -0.66547669241D-01
     19.103729887           -0.24828595903
      6.6567720378          -0.48703847402
      2.3959635161          -0.39337850312
P    1   1.00
      0.61776161679          1.0000000
P    1   1.00
      0.16993376871          1.0000000
D    1   1.00
      0.5500000              1.0000000
****
Yb     0
S    5   1.00
  91972.903000               0.51000000000D-04
  13787.371000               0.38600000000D-03
   3123.6135000              0.18440000000D-02
    871.47540000             0.53560000000D-02
    250.46300000             0.88590000000D-02
S    1   1.00
     58.282700000            1.0000000
S    1   1.00
     41.630500000            1.0000000
S    1   1.00
     20.216400000            1.0000000
S    1   1.00
      4.9972000000           1.0000000
S    1   1.00
      2.4822000000           1.0000000
S    1   1.00
      0.91790000000          1.0000000
S    1   1.00
      0.38530000000          1.0000000
S    1   1.00
      0.61400000000D-01      1.0000000
S    1   1.00
      0.25000000000D-01      1.0000000
P    3   1.00
     12.274108000           -0.15252141000
     10.695631000           -0.20243492000
      2.0359782000          -0.19621046000
P    6   1.00
   1497.5567000             -0.10182934000D-02
    375.04101000            -0.60919401000D-02
    128.69727000            -0.17077693000D-01
     45.270759000           -0.35655508000D-01
     14.906971000            0.23732226000
      5.6450858000          -0.30559689000
P    1   1.00
      3.6752106000           1.0000000
P    1   1.00
      1.3296961000           1.0000000
P    1   1.00
      0.55338966000          1.0000000
P    1   1.00
      0.22382350000          1.0000000
P    1   1.00
      0.68350467650D-01      1.0000000
P    1   1.00
      0.25355670803D-01      1.0000000
D    6   1.00
    469.76060000             0.19840000000D-02
    142.61280000             0.16013000000D-01
     55.126700000            0.63153000000D-01
     23.441500000            0.13780000000
      9.4951000000           0.28549800000
      4.5792000000           0.43830900000
D    1   1.00
      2.1646000000           1.0000000
D    1   1.00
      0.92380000000          1.0000000
D    1   1.00
      0.31070000000          1.0000000
D    1   1.00
      0.91400000000D-01      1.0000000
F    5   1.00
    142.02930000             0.59570000000D-02
     51.086200000            0.53180000000D-01
     22.874100000            0.17807600000
     10.502500000            0.30060000000
      4.7872000000           0.35034200000
F    1   1.00
      2.1088000000           1.0000000
F    1   1.00
      0.86090000000          1.0000000
F    1   1.00
      0.30600000000          1.0000000
G    1   1.00
      0.51330000000          1.0000000
****

Yb     0
Yb-ECP     5     28
h potential
  1
2      1.00000000             0.00000000
s-h potential
  1
2     32.42448400           891.01377700
p-h potential
  1
2     18.65623200           264.03695300
d-h potential
  1
2     10.49022200            73.92391900
f-h potential
  1
2     20.77418300           -39.59217300
g-h potential
  1
2     28.43102800           -34.63863800








































