%chk=preplx.chk
%mem=616Gb
%nprocshared=24
#P UMN15/genecp scf=(maxcyc=500) opt scrf=(smd,solvent=DiChloroEthane)  

Opt

0 1
 C                  4.78115500   -0.84545700    0.92406500
 C                  6.11411100   -0.61527500    0.56064600
 C                  7.12936900   -0.68289300    1.51607800
 C                  6.81903500   -1.00079700    2.83826800
 C                  5.49662000   -1.28924000    3.19323900
 C                  4.48307800   -1.22718000    2.23932700
 C                  2.31334300   -0.44294400   -0.09370500
 C                  1.57895800   -0.18805300   -1.39579400
 C                  1.61995300    0.12409700    1.12705200
 H                  6.35591300   -0.37437200   -0.47779100
 H                  8.16344300   -0.48825300    1.22397200
 H                  7.60882000   -1.04712600    3.59149500
 H                  5.25600500   -1.57490200    4.21960200
 H                  3.46131500   -1.49210000    2.51979100
 O                  0.41188100    0.01469000    1.31981800
 O                  0.35197000   -0.09118600   -1.45159700
 O                  2.34037100   -0.17618200   -2.43522000
 O                  2.41037500    0.74325700    1.94136300
 C                  1.73994900    0.04789300   -3.71998900
 C                  1.88608700    1.25973000    3.17438500
 H                  2.56785300    0.10833100   -4.43212800
 H                  1.17333100    0.98898300   -3.69780100
 H                  1.06941200   -0.78550400   -3.96577100
 H                  2.72773900    1.75718400    3.66774600
 H                  1.50950300    0.43081500    3.78844300
 H                  1.07195400    1.96681800    2.96472500
 O                 -2.52190700    0.18374700    1.86573200
 O                 -2.72236600    0.59377100   -1.46098700
 O                 -0.26935300   -2.51918600    0.37503800
 S                 -0.90070700   -3.28932000   -0.75092700
 S                 -3.49696100   -0.95428200    1.95500200
 S                 -2.15969100    1.97297100   -1.27202500
 O                 -1.62472200   -2.26032200   -1.55759200
 O                 -1.58900200   -4.50829200   -0.42057100
 O                 -3.15837400   -1.82054400    0.78360700
 O                 -3.67641700   -1.57941000    3.23664900
 O                 -1.17849700    1.84453400   -0.15693200
 O                 -1.74859400    2.67652400   -2.46213800
 C                 -3.54253900    2.96783400   -0.56425000
 C                 -5.12076100   -0.19830400    1.52099800
 C                  0.52910600   -3.81531900   -1.78983800
 F                 -3.18917200    4.23983200   -0.60170300
 F                 -3.76384200    2.60858900    0.68448800
 F                 -4.62732600    2.78048300   -1.28641200
 F                 -5.09694600    0.22108800    0.26905500
 F                 -5.34664300    0.81831000    2.32930100
 F                 -6.06372900   -1.10630100    1.66776600
 F                  1.10273800   -2.76119600   -2.34893400
 F                  0.09162500   -4.62384900   -2.73413200
 F                  1.39989300   -4.44328900   -1.02882600
 C                  3.75096900   -0.79198500   -0.15519500
 H                  4.17361300   -0.73879900   -1.16271200
 C                  4.11654700    1.98177000   -0.26760900
 C                  4.78555100    1.63968700   -1.46328400
 C                  4.80399800    2.13230000    0.95909000
 C                  1.24055800    4.20217100    0.41017100
 C                  1.22491300    3.34883500   -1.79939100
 C                  0.62120900    4.15676000   -0.82912100
 H                  0.85025700    4.79841200    1.23580500
 H                  0.79501000    3.23851800   -2.79757300
 H                 -0.30369700    4.69188200   -1.04429000
 N                  5.35155800    1.31370200   -2.42997500
 N                  5.29765100    2.29315600    2.00424500
 N                  2.91993900    2.72767900   -0.40205500
 N                  2.32970300    2.65152300   -1.59112800
 C                  2.40742900    3.47619700    0.60648300
 H                  2.96986500    3.49703500    1.53969500
 Lu                -1.36606400   -0.52250000    0.00053600
 O                  2.71648300   -1.78812000   -0.03927800

H     0
S    3   1.00
     13.0107010              0.19682158D-01
      1.9622572              0.13796524
      0.44453796             0.47831935
S    1   1.00
      0.12194962             1.0000000
P    1   1.00
      0.8000000              1.0000000
****
C     0
S    5   1.00
   1238.4016938              0.54568832082D-02
    186.29004992             0.40638409211D-01
     42.251176346            0.18025593888
     11.676557932            0.46315121755
      3.5930506482           0.44087173314
S    1   1.00
      0.40245147363          1.0000000
S    1   1.00
      0.13090182668          1.0000000
P    3   1.00
      9.4680970621           0.38387871728D-01
      2.0103545142           0.21117025112
      0.54771004707          0.51328172114
P    1   1.00
      0.15268613795          1.0000000
D    1   1.00
      0.8000000              1.0000000
****
N     0
S    5   1.00
   1712.8415853             -0.53934125305D-02
    257.64812677            -0.40221581118D-01
     58.458245853           -0.17931144990
     16.198367905           -0.46376317823
      5.0052600809          -0.44171422662
S    1   1.00
      0.58731856571          1.0000000
S    1   1.00
      0.18764592253          1.0000000
P    3   1.00
     13.571470233           -0.40072398852D-01
      2.9257372874          -0.21807045028
      0.79927750754         -0.51294466049
P    1   1.00
      0.21954348034          1.0000000
D    1   1.00
      1.0000000              1.0000000
****
O     0
S    5   1.00
   2266.1767785             -0.53431809926D-02
    340.87010191            -0.39890039230D-01
     77.363135167           -0.17853911985
     21.479644940           -0.46427684959
      6.6589433124          -0.44309745172
S    1   1.00
      0.80975975668          1.0000000
S    1   1.00
      0.25530772234          1.0000000
P    3   1.00
     17.721504317            0.43394573193D-01
      3.8635505440           0.23094120765
      1.0480920883           0.51375311064
P    1   1.00
      0.27641544411          1.0000000
D    1   1.00
      1.2000000              1.0000000
****
F     0
S    5   1.00
   2894.8325990             -0.53408255515D-02
    435.41939120            -0.39904258866D-01
     98.843328866           -0.17912768038
     27.485198001           -0.46758090825
      8.5405498171          -0.44653131020
S    1   1.00
      1.0654578038           1.0000000
S    1   1.00
      0.33247346748          1.0000000
P    3   1.00
     22.696633924           -0.45212874436D-01
      4.9872339257          -0.23754317067
      1.3491613954          -0.51287353587
P    1   1.00
      0.34829881977          1.0000000
D    1   1.00
      1.4000000              1.0000000
****
S     0
S    5   1.00
   9184.9303010             -0.22294387756D-02
   1381.5105503             -0.16683029937D-01
    313.87147580            -0.75262436116D-01
     88.053870623           -0.19376827038
     27.039914905           -0.17718020803
S    3   1.00
     45.648731303           -0.10736062573
      4.9664522326           0.65066293018
      2.0116242047           0.59712155354
S    1   1.00
      0.35661077013          1.0000000
S    1   1.00
      0.13507221477          1.0000000
P    5   1.00
    261.98233439            -0.92729929822D-02
     61.306894736           -0.66547669241D-01
     19.103729887           -0.24828595903
      6.6567720378          -0.48703847402
      2.3959635161          -0.39337850312
P    1   1.00
      0.61776161679          1.0000000
P    1   1.00
      0.16993376871          1.0000000
D    1   1.00
      0.5500000              1.0000000
****
Lu     0
S    5   1.00
  95169.767000               0.22000000000D-04
  15488.403000               0.14500000000D-03
   3776.2335000              0.65100000000D-03
   1079.0501000              0.20380000000D-02
    268.95380000             0.51270000000D-02
S    1   1.00
     63.467900000            1.0000000
S    1   1.00
     45.133200000            1.0000000
S    1   1.00
     21.456800000            1.0000000
S    1   1.00
      5.3483000000           1.0000000
S    1   1.00
      2.6778000000           1.0000000
S    1   1.00
      1.0287000000           1.0000000
S    1   1.00
      0.44080000000          1.0000000
S    1   1.00
      0.79100000000D-01      1.0000000
S    1   1.00
      0.31300000000D-01      1.0000000
P    3   1.00
     12.333733920           -0.15313031066
     11.080331415           -0.20300664852
      2.0341747228          -0.19458361263
P    6   1.00
   1500.5317313             -0.10192569555D-02
    382.39748937            -0.59476212135D-02
    132.99969628            -0.16265160929D-01
     46.110032419           -0.35623845839D-01
     15.583529011            0.23709171074
      5.7856677022          -0.30670977844
P    1   1.00
      3.7823361008           1.0000000
P    1   1.00
      1.3682592248           1.0000000
P    1   1.00
      0.57288205601          1.0000000
P    1   1.00
      0.22793165135          1.0000000
P    1   1.00
      0.81403917986D-01      1.0000000
P    1   1.00
      0.29091071778D-01      1.0000000
D    6   1.00
    484.52750000             0.22860000000D-02
    146.66550000             0.18629000000D-01
     56.377900000            0.74088000000D-01
     23.671100000            0.16155400000
      9.4401000000           0.30809100000
      4.3712000000           0.44833400000
D    1   1.00
      1.9580000000           1.0000000
D    1   1.00
      0.72720000000          1.0000000
D    1   1.00
      0.24600000000          1.0000000
D    1   1.00
      0.74400000000D-01      1.0000000
F    5   1.00
    175.15590000             0.41020000000D-02
     62.890900000            0.39086000000D-01
     28.362400000            0.14704400000
     13.247800000            0.27109200000
      6.1440000000           0.34566500000
F    1   1.00
      2.7623000000           1.0000000
F    1   1.00
      1.1574000000           1.0000000
F    1   1.00
      0.42440000000          1.0000000
G    1   1.00
      0.70090000000          1.0000000
****

Lu     0
Lu-ECP     5     28
h potential
  1
2      1.00000000             0.00000000
s-h potential
  1
2     35.16209700           989.99558400
p-h potential
  1
2     19.46440200           278.86565200
d-h potential
  1
2     10.00686500            71.00917800
f-h potential
  1
2     23.51793200           -47.40589000
g-h potential
  1
2     29.41223800           -35.55714600

