%chk=ts-min.chk
%mem=616Gb
%nprocshared=24
# irc=(maxpoints=100,recorrect=never,calcfc,maxcycles=500,nogradstop) MN15/gen scrf=(smd,solvent=DiChloroEthane)  

IRC for Going from i2 to i3, where we are forming bond 1-44

0 1
C                 -1.8304570000     -0.1186790000      0.9786970000
C                 -1.4208670000      0.1622890000     -0.4060930000
C                 -0.7583150000     -0.2745170000      1.9755750000
O                  0.4223030000     -0.5373530000      1.6512520000
O                 -0.2455580000      0.0321240000     -0.8090670000
O                  3.4075720000     -0.9492150000      0.9637390000
O                  2.5560700000     -0.3853400000     -1.8122760000
O                  0.4339570000      2.0710820000      0.8945690000
S                  1.1694080000      2.9770940000     -0.0266680000
S                  3.9384150000      0.1663820000      1.8112450000
S                  2.2880530000     -1.8623610000     -1.7918920000
O                  2.0248280000      2.0751680000     -0.8675240000
O                  1.7804150000      4.1649960000      0.5125050000
O                  2.9005570000      1.2314880000      1.6853310000
O                  4.4457800000     -0.1541370000      3.1175890000
O                  1.5367200000     -2.0886000000     -0.5281880000
O                  1.7708690000     -2.4579850000     -2.9985510000
C                  3.9693170000     -2.6371870000     -1.5238050000
C                  5.3477330000      0.8046450000      0.8150590000
C                 -0.1319580000      3.5784410000     -1.1998270000
F                  3.9237220000     -3.4344200000     -0.4762370000
F                  4.8798940000     -1.7023640000     -1.3380790000
F                  4.2800600000     -3.3399800000     -2.5970850000
F                  4.9054130000      1.0911510000     -0.3967960000
F                  6.2857800000     -0.1194170000      0.7421330000
F                  5.8338510000      1.8918780000      1.3807110000
F                 -1.2609790000      3.7486020000     -0.5279960000
F                 -0.3267070000      2.6939120000     -2.1596370000
F                  0.2440220000      4.7259150000     -1.7271670000
C                 -4.5642860000      0.0262020000      1.1659360000
C                 -4.6394910000     -1.5317050000      1.2425420000
C                 -5.9645460000     -2.0672280000      0.8643410000
C                 -4.4475370000     -1.8975560000      2.6685620000
C                 -1.2902940000     -2.7748070000      0.1424520000
C                 -2.9800090000     -3.0591700000     -1.5442490000
C                 -1.6168000000     -3.2035640000     -1.1000940000
H                 -0.2890420000     -2.8880230000      0.5556830000
H                 -3.2902910000     -3.3888440000     -2.5380590000
H                 -0.8800590000     -3.6780210000     -1.7502510000
N                 -7.0224750000     -2.4799200000      0.6465060000
N                 -4.2961350000     -2.1334480000      3.7911190000
N                 -3.5809960000     -2.1837870000      0.4543660000
N                 -3.9154950000     -2.5759220000     -0.7861080000
C                 -2.2898310000     -2.0861590000      0.9321510000
H                 -2.2238920000     -2.1923110000      2.0189110000
C                 -3.1206600000      0.5434240000      1.4901520000
H                 -3.1039810000      1.6042670000      1.1942300000
H                 -3.0602110000      0.5558060000      2.5838670000
Sc                 1.6475550000      0.1462230000      0.1128950000
H                 -5.1430750000      0.3525190000      2.0444050000
C                 -5.2704060000      0.7070490000     -0.0014550000
C                 -5.4917480000      2.0857870000      0.1521480000
C                 -5.7156110000      0.0909150000     -1.1770200000
C                 -6.1142820000      2.8327010000     -0.8464220000
H                 -5.1733810000      2.5801830000      1.0750430000
C                 -6.3475460000      0.8373920000     -2.1771310000
H                 -5.5526440000     -0.9741500000     -1.3482990000
C                 -6.5445110000      2.2086300000     -2.0209350000
H                 -6.2725210000      3.9037840000     -0.7022540000
H                 -6.6806520000      0.3343020000     -3.0875370000
H                 -7.0348260000      2.7884540000     -2.8059100000
C                 -1.0483370000     -0.2206780000      3.4400710000
H                 -1.2261430000      0.8313330000      3.7195000000
H                 -1.9484180000     -0.7891240000      3.7187190000
H                 -0.1741120000     -0.5914530000      3.9866760000
C                 -2.4344470000      0.5796790000     -1.4133620000
H                 -3.2587770000     -0.1423570000     -1.4542600000
H                 -2.8792600000      1.5466970000     -1.1257610000
H                 -1.9599350000      0.6592210000     -2.3970510000

H     0
S    3   1.00
     13.0107010              0.19682158D-01
      1.9622572              0.13796524
      0.44453796             0.47831935
S    1   1.00
      0.12194962             1.0000000
P    1   1.00
      0.8000000              1.0000000
****
C     0
S    5   1.00
   1238.4016938              0.54568832082D-02
    186.29004992             0.40638409211D-01
     42.251176346            0.18025593888
     11.676557932            0.46315121755
      3.5930506482           0.44087173314
S    1   1.00
      0.40245147363          1.0000000
S    1   1.00
      0.13090182668          1.0000000
P    3   1.00
      9.4680970621           0.38387871728D-01
      2.0103545142           0.21117025112
      0.54771004707          0.51328172114
P    1   1.00
      0.15268613795          1.0000000
D    1   1.00
      0.8000000              1.0000000
****
N     0
S    5   1.00
   1712.8415853             -0.53934125305D-02
    257.64812677            -0.40221581118D-01
     58.458245853           -0.17931144990
     16.198367905           -0.46376317823
      5.0052600809          -0.44171422662
S    1   1.00
      0.58731856571          1.0000000
S    1   1.00
      0.18764592253          1.0000000
P    3   1.00
     13.571470233           -0.40072398852D-01
      2.9257372874          -0.21807045028
      0.79927750754         -0.51294466049
P    1   1.00
      0.21954348034          1.0000000
D    1   1.00
      1.0000000              1.0000000
****
O     0
S    5   1.00
   2266.1767785             -0.53431809926D-02
    340.87010191            -0.39890039230D-01
     77.363135167           -0.17853911985
     21.479644940           -0.46427684959
      6.6589433124          -0.44309745172
S    1   1.00
      0.80975975668          1.0000000
S    1   1.00
      0.25530772234          1.0000000
P    3   1.00
     17.721504317            0.43394573193D-01
      3.8635505440           0.23094120765
      1.0480920883           0.51375311064
P    1   1.00
      0.27641544411          1.0000000
D    1   1.00
      1.2000000              1.0000000
****
F     0
S    5   1.00
   2894.8325990             -0.53408255515D-02
    435.41939120            -0.39904258866D-01
     98.843328866           -0.17912768038
     27.485198001           -0.46758090825
      8.5405498171          -0.44653131020
S    1   1.00
      1.0654578038           1.0000000
S    1   1.00
      0.33247346748          1.0000000
P    3   1.00
     22.696633924           -0.45212874436D-01
      4.9872339257          -0.23754317067
      1.3491613954          -0.51287353587
P    1   1.00
      0.34829881977          1.0000000
D    1   1.00
      1.4000000              1.0000000
****
S     0
S    5   1.00
   9184.9303010             -0.22294387756D-02
   1381.5105503             -0.16683029937D-01
    313.87147580            -0.75262436116D-01
     88.053870623           -0.19376827038
     27.039914905           -0.17718020803
S    3   1.00
     45.648731303           -0.10736062573
      4.9664522326           0.65066293018
      2.0116242047           0.59712155354
S    1   1.00
      0.35661077013          1.0000000
S    1   1.00
      0.13507221477          1.0000000
P    5   1.00
    261.98233439            -0.92729929822D-02
     61.306894736           -0.66547669241D-01
     19.103729887           -0.24828595903
      6.6567720378          -0.48703847402
      2.3959635161          -0.39337850312
P    1   1.00
      0.61776161679          1.0000000
P    1   1.00
      0.16993376871          1.0000000
D    1   1.00
      0.5500000              1.0000000
****
Sc     0
S    8   1.00
 191612.9187400              0.23076475942D-03
  28723.8503630              0.17890329946D-02
   6537.0116490              0.92990401140D-02
   1850.3097171              0.37739438011D-01
    602.38855156             0.12227148359
    216.17324766             0.28814821470
     83.712517880            0.40517543099
     32.908707189            0.20566019623
S    4   1.00
    211.34393234            -0.24527991462D-01
     65.128920139           -0.11570158142
     10.034311535            0.55995283317
      4.1596884597           0.56087765073
S    2   1.00
      6.0009041613          -0.22840494325
      0.98255784150          0.71948970378
S    1   1.00
      0.42483192773          1.0000000
S    1   1.00
      0.77185462096D-01      1.0000000
S    1   1.00
      0.30147219702D-01      1.0000000
P    6   1.00
    947.34122823             0.24737208744D-02
    224.09699732             0.19742967060D-01
     71.560334882            0.90357147549D-01
     26.444824490            0.25201602503
     10.393798285            0.39675535929
      4.1606304559           0.23208624517
P    3   1.00
     15.565737135           -0.27129423974D-01
      2.1121544865           0.55109256629
      0.84184709021          1.0090635806
P    1   1.00
      0.32297542652          1.0000000
P    1   1.00
      0.0897480              1.0000000
D    4   1.00
     30.989390993            0.11902837431D-01
      8.6905465069           0.67655856850D-01
      2.9520256337           0.21332539722
      1.0761910745           0.38391075578
D    1   1.00
      0.38338915095           .43354716259
D    1   1.00
      0.12534686113           .24509263822
D    1   1.00
      0.0410000              1.0000000
F    1   1.00
      0.3450000              1.0000000
****

























