%chk=scan-preplx.chk
%mem=92Gb
%nprocshared=24
#P UMN15/genecp scf=(maxcyc=500) opt=modred scrf=(smd,solvent=DiChloroEthane)  

Scan

0 1
 C                 -5.67520000   -1.29291300   -0.34899400
 C                 -6.83018500   -1.24377800    0.45875700
 C                 -8.05074300   -1.64832400   -0.06896600
 C                 -8.11821800   -2.08911500   -1.39537800
 C                 -6.97331000   -2.12788400   -2.20604900
 C                 -5.74836500   -1.73097600   -1.69099300
 C                 -2.06763800   -0.60557400   -0.33581000
 C                 -1.55065100    0.08343200    0.79251500
 C                 -1.27689900   -0.89411600   -1.49254100
 H                 -6.75171900   -0.88106000    1.48635300
 H                 -8.95209700   -1.61778800    0.54530500
 H                 -9.07921500   -2.40291300   -1.80930600
 H                 -7.04859600   -2.46622800   -3.24087200
 H                 -4.84271800   -1.73806000   -2.30247600
 O                 -0.06965700   -0.57298300   -1.61031400
 O                 -0.33265600    0.30482800    0.97656000
 O                 -2.44081100    0.52278200    1.66673000
 O                 -1.90369300   -1.50412800   -2.46881300
 C                 -1.94880900    1.28735900    2.77420500
 C                 -1.19797200   -1.68821800   -3.69714300
 H                 -2.83122900    1.68728900    3.28406900
 H                 -1.30311000    2.10156400    2.41501200
 H                 -1.37216800    0.64496800    3.45256500
 H                 -1.88144400   -2.22397400   -4.36344100
 H                 -0.28604300   -2.27807100   -3.53373700
 H                 -0.93544700   -0.71378700   -4.13128100
 O                  2.97677300    0.06580300   -1.81156900
 O                  2.60163600    1.09592600    1.29160100
 O                  0.34081200   -2.47283000    0.39619000
 S                  1.17799500   -2.81971400    1.57887100
 S                  3.60934700   -1.28674600   -1.90322800
 S                  2.14757700    2.37141000    0.65398500
 O                  2.03989600   -1.62141300    1.83051900
 O                  1.80930000   -4.11392100    1.61182600
 O                  2.80737500   -2.14905200   -0.98348000
 O                  3.93875600   -1.79722700   -3.20600900
 O                  1.36725600    1.97745400   -0.54938000
 O                  1.58296700    3.37500200    1.52692400
 C                  3.69173000    3.12855800   -0.00727000
 C                  5.18346700   -1.05066600   -0.98243900
 C                  0.00091000   -2.83215500    2.99689300
 F                  3.35926400    4.06248400   -0.88185400
 F                  4.43885400    2.21491200   -0.59508000
 F                  4.36355400    3.67471800    0.98883100
 F                  4.87997600   -0.62792400    0.23754000
 F                  5.92581200   -0.14762400   -1.59130500
 F                  5.83715200   -2.19201700   -0.90617800
 F                 -0.80506500   -1.78226800    2.93853800
 F                  0.68077500   -2.79834200    4.12669900
 F                 -0.72063100   -3.93593700    2.94455900
 C                 -4.43665700   -0.86120100    0.21886200
 H                 -4.38216500   -0.45971100    1.23658500
 C                 -4.07687800    2.28678300   -0.66976500
 C                 -5.30891700    2.20044100    0.01161400
 C                 -3.86378700    1.63742700   -1.89988800
 C                 -0.91945700    4.09480500   -0.13561800
 C                 -2.55172700    4.60612500    1.50816800
 C                 -1.27152200    4.82561300    0.99120300
 H                  0.06135900    4.17958500   -0.60076500
 H                 -2.90599500    5.12153100    2.40387600
 H                 -0.58518000    5.52574600    1.46618800
 N                 -6.33933900    2.08065900    0.54630000
 N                 -3.68280700    1.07807500   -2.90951400
 N                 -3.07388800    3.10590700   -0.12325800
 N                 -3.42686800    3.77318200    0.96732200
 C                 -1.84115900    3.21149700   -0.67749400
 H                 -1.63741100    2.59002600   -1.55132200
 Lu                 1.49445000   -0.40563000   -0.07188000
 O                 -3.38250400   -0.95625000   -0.48481700

7 51 S 9 -0.1

H     0
S    3   1.00
     13.0107010              0.19682158D-01
      1.9622572              0.13796524
      0.44453796             0.47831935
S    1   1.00
      0.12194962             1.0000000
P    1   1.00
      0.8000000              1.0000000
****
C     0
S    5   1.00
   1238.4016938              0.54568832082D-02
    186.29004992             0.40638409211D-01
     42.251176346            0.18025593888
     11.676557932            0.46315121755
      3.5930506482           0.44087173314
S    1   1.00
      0.40245147363          1.0000000
S    1   1.00
      0.13090182668          1.0000000
P    3   1.00
      9.4680970621           0.38387871728D-01
      2.0103545142           0.21117025112
      0.54771004707          0.51328172114
P    1   1.00
      0.15268613795          1.0000000
D    1   1.00
      0.8000000              1.0000000
****
N     0
S    5   1.00
   1712.8415853             -0.53934125305D-02
    257.64812677            -0.40221581118D-01
     58.458245853           -0.17931144990
     16.198367905           -0.46376317823
      5.0052600809          -0.44171422662
S    1   1.00
      0.58731856571          1.0000000
S    1   1.00
      0.18764592253          1.0000000
P    3   1.00
     13.571470233           -0.40072398852D-01
      2.9257372874          -0.21807045028
      0.79927750754         -0.51294466049
P    1   1.00
      0.21954348034          1.0000000
D    1   1.00
      1.0000000              1.0000000
****
O     0
S    5   1.00
   2266.1767785             -0.53431809926D-02
    340.87010191            -0.39890039230D-01
     77.363135167           -0.17853911985
     21.479644940           -0.46427684959
      6.6589433124          -0.44309745172
S    1   1.00
      0.80975975668          1.0000000
S    1   1.00
      0.25530772234          1.0000000
P    3   1.00
     17.721504317            0.43394573193D-01
      3.8635505440           0.23094120765
      1.0480920883           0.51375311064
P    1   1.00
      0.27641544411          1.0000000
D    1   1.00
      1.2000000              1.0000000
****
F     0
S    5   1.00
   2894.8325990             -0.53408255515D-02
    435.41939120            -0.39904258866D-01
     98.843328866           -0.17912768038
     27.485198001           -0.46758090825
      8.5405498171          -0.44653131020
S    1   1.00
      1.0654578038           1.0000000
S    1   1.00
      0.33247346748          1.0000000
P    3   1.00
     22.696633924           -0.45212874436D-01
      4.9872339257          -0.23754317067
      1.3491613954          -0.51287353587
P    1   1.00
      0.34829881977          1.0000000
D    1   1.00
      1.4000000              1.0000000
****
S     0
S    5   1.00
   9184.9303010             -0.22294387756D-02
   1381.5105503             -0.16683029937D-01
    313.87147580            -0.75262436116D-01
     88.053870623           -0.19376827038
     27.039914905           -0.17718020803
S    3   1.00
     45.648731303           -0.10736062573
      4.9664522326           0.65066293018
      2.0116242047           0.59712155354
S    1   1.00
      0.35661077013          1.0000000
S    1   1.00
      0.13507221477          1.0000000
P    5   1.00
    261.98233439            -0.92729929822D-02
     61.306894736           -0.66547669241D-01
     19.103729887           -0.24828595903
      6.6567720378          -0.48703847402
      2.3959635161          -0.39337850312
P    1   1.00
      0.61776161679          1.0000000
P    1   1.00
      0.16993376871          1.0000000
D    1   1.00
      0.5500000              1.0000000
****
Lu     0
S    5   1.00
  95169.767000               0.22000000000D-04
  15488.403000               0.14500000000D-03
   3776.2335000              0.65100000000D-03
   1079.0501000              0.20380000000D-02
    268.95380000             0.51270000000D-02
S    1   1.00
     63.467900000            1.0000000
S    1   1.00
     45.133200000            1.0000000
S    1   1.00
     21.456800000            1.0000000
S    1   1.00
      5.3483000000           1.0000000
S    1   1.00
      2.6778000000           1.0000000
S    1   1.00
      1.0287000000           1.0000000
S    1   1.00
      0.44080000000          1.0000000
S    1   1.00
      0.79100000000D-01      1.0000000
S    1   1.00
      0.31300000000D-01      1.0000000
P    3   1.00
     12.333733920           -0.15313031066
     11.080331415           -0.20300664852
      2.0341747228          -0.19458361263
P    6   1.00
   1500.5317313             -0.10192569555D-02
    382.39748937            -0.59476212135D-02
    132.99969628            -0.16265160929D-01
     46.110032419           -0.35623845839D-01
     15.583529011            0.23709171074
      5.7856677022          -0.30670977844
P    1   1.00
      3.7823361008           1.0000000
P    1   1.00
      1.3682592248           1.0000000
P    1   1.00
      0.57288205601          1.0000000
P    1   1.00
      0.22793165135          1.0000000
P    1   1.00
      0.81403917986D-01      1.0000000
P    1   1.00
      0.29091071778D-01      1.0000000
D    6   1.00
    484.52750000             0.22860000000D-02
    146.66550000             0.18629000000D-01
     56.377900000            0.74088000000D-01
     23.671100000            0.16155400000
      9.4401000000           0.30809100000
      4.3712000000           0.44833400000
D    1   1.00
      1.9580000000           1.0000000
D    1   1.00
      0.72720000000          1.0000000
D    1   1.00
      0.24600000000          1.0000000
D    1   1.00
      0.74400000000D-01      1.0000000
F    5   1.00
    175.15590000             0.41020000000D-02
     62.890900000            0.39086000000D-01
     28.362400000            0.14704400000
     13.247800000            0.27109200000
      6.1440000000           0.34566500000
F    1   1.00
      2.7623000000           1.0000000
F    1   1.00
      1.1574000000           1.0000000
F    1   1.00
      0.42440000000          1.0000000
G    1   1.00
      0.70090000000          1.0000000
****

Lu     0
Lu-ECP     5     28
h potential
  1
2      1.00000000             0.00000000
s-h potential
  1
2     35.16209700           989.99558400
p-h potential
  1
2     19.46440200           278.86565200
d-h potential
  1
2     10.00686500            71.00917800
f-h potential
  1
2     23.51793200           -47.40589000
g-h potential
  1
2     29.41223800           -35.55714600



