%chk=mixed.chk
%mem=616Gb
%nprocshared=24
#P  MN15/gen scf=(maxcyc=500) freq scrf=(smd,solvent=DiChloroEthane)  

Opt

0 1
C                 -4.1591500000     -0.6059640000     -0.7869900000
C                 -4.7449760000     -0.7580720000     -2.0517970000
C                 -5.4087220000      0.3113470000     -2.6559580000
C                 -5.5014240000      1.5422170000     -2.0016650000
C                 -4.9365390000      1.6970860000     -0.7329790000
C                 -4.2740920000      0.6289200000     -0.1296200000
C                 -3.4440800000     -1.7149090000     -0.0883010000
C                 -1.9624150000     -2.1083860000     -0.4761250000
C                 -3.1502080000     -3.0304760000     -0.6738530000
C                 -1.0676760000     -2.3341380000      0.6734870000
C                 -1.3484510000     -1.4143490000     -1.6316310000
H                 -4.6898620000     -1.7178410000     -2.5694540000
H                 -5.8621470000      0.1786920000     -3.6408430000
H                 -6.0210640000      2.3774280000     -2.4766590000
H                 -5.0121680000      2.6523100000     -0.2086890000
H                 -3.8367810000      0.7460870000      0.8635100000
H                 -3.5355300000     -1.6792490000      1.0021730000
O                 -0.3413220000     -0.7083610000     -1.5607690000
O                  0.0505420000     -1.8122920000      0.7972950000
Sc                 0.8524510000      0.0609360000      0.0905090000
O                 -1.5438920000     -3.1177610000      1.5941960000
O                 -1.9784490000     -1.5893030000     -2.7583190000
C                 -0.7771050000     -3.2597300000      2.8026450000
C                 -1.5546020000     -0.8156780000     -3.8894480000
H                 -1.3769280000     -3.8846140000      3.4704710000
H                 -0.6057860000     -2.2679060000      3.2414890000
H                  0.1840500000     -3.7385850000      2.5775300000
H                 -2.2464820000     -1.0599180000     -4.7013240000
H                 -0.5267800000     -1.0859640000     -4.1638910000
H                 -1.6039900000      0.2542020000     -3.6466710000
O                  1.8379000000      1.9576290000      0.6408010000
O                  0.2946810000      0.4101300000      2.3762340000
O                  2.3699600000     -0.9232490000     -1.1427860000
S                  3.2411200000     -1.3867390000     -0.0088680000
S                  1.6305860000      2.6628280000     -0.6670040000
S                 -1.1114770000      0.7190310000      2.0335600000
O                  2.6033130000     -0.7723230000      1.1937220000
O                  4.6656910000     -1.2761960000     -0.1631860000
O                  0.9150360000      1.6486650000     -1.4996140000
O                  1.1274340000      4.0097110000     -0.6414780000
O                 -1.1471370000      0.8048860000      0.5297460000
O                 -2.1535580000     -0.0843360000      2.6384410000
C                 -1.4100940000      2.4582490000      2.5523940000
C                  3.3222460000      2.7509610000     -1.3924460000
C                  2.8631860000     -3.2113960000      0.1333710000
F                 -2.6540220000      2.7821270000      2.2483150000
F                 -0.5734830000      3.2472950000      1.9107320000
F                 -1.2243890000      2.5618950000      3.8522490000
F                  3.9229550000      1.5839260000     -1.2481350000
F                  4.0096940000      3.6851510000     -0.7667600000
F                  3.2257950000      3.0464150000     -2.6737890000
F                  2.5837380000     -3.4994400000      1.3893930000
F                  3.9196410000     -3.8936370000     -0.2564810000
F                  1.8321700000     -3.5199210000     -0.6303810000
H                 -3.1725120000     -3.9039940000     -0.0207700000
H                 -3.4150360000     -3.2082050000     -1.7176310000

H     0
S    3   1.00
     13.0107010              0.19682158D-01
      1.9622572              0.13796524
      0.44453796             0.47831935
S    1   1.00
      0.12194962             1.0000000
P    1   1.00
      0.8000000              1.0000000
****
C     0
S    5   1.00
   1238.4016938              0.54568832082D-02
    186.29004992             0.40638409211D-01
     42.251176346            0.18025593888
     11.676557932            0.46315121755
      3.5930506482           0.44087173314
S    1   1.00
      0.40245147363          1.0000000
S    1   1.00
      0.13090182668          1.0000000
P    3   1.00
      9.4680970621           0.38387871728D-01
      2.0103545142           0.21117025112
      0.54771004707          0.51328172114
P    1   1.00
      0.15268613795          1.0000000
D    1   1.00
      0.8000000              1.0000000
****
O     0
S    5   1.00
   2266.1767785             -0.53431809926D-02
    340.87010191            -0.39890039230D-01
     77.363135167           -0.17853911985
     21.479644940           -0.46427684959
      6.6589433124          -0.44309745172
S    1   1.00
      0.80975975668          1.0000000
S    1   1.00
      0.25530772234          1.0000000
P    3   1.00
     17.721504317            0.43394573193D-01
      3.8635505440           0.23094120765
      1.0480920883           0.51375311064
P    1   1.00
      0.27641544411          1.0000000
D    1   1.00
      1.2000000              1.0000000
****
F     0
S    5   1.00
   2894.8325990             -0.53408255515D-02
    435.41939120            -0.39904258866D-01
     98.843328866           -0.17912768038
     27.485198001           -0.46758090825
      8.5405498171          -0.44653131020
S    1   1.00
      1.0654578038           1.0000000
S    1   1.00
      0.33247346748          1.0000000
P    3   1.00
     22.696633924           -0.45212874436D-01
      4.9872339257          -0.23754317067
      1.3491613954          -0.51287353587
P    1   1.00
      0.34829881977          1.0000000
D    1   1.00
      1.4000000              1.0000000
****
S     0
S    5   1.00
   9184.9303010             -0.22294387756D-02
   1381.5105503             -0.16683029937D-01
    313.87147580            -0.75262436116D-01
     88.053870623           -0.19376827038
     27.039914905           -0.17718020803
S    3   1.00
     45.648731303           -0.10736062573
      4.9664522326           0.65066293018
      2.0116242047           0.59712155354
S    1   1.00
      0.35661077013          1.0000000
S    1   1.00
      0.13507221477          1.0000000
P    5   1.00
    261.98233439            -0.92729929822D-02
     61.306894736           -0.66547669241D-01
     19.103729887           -0.24828595903
      6.6567720378          -0.48703847402
      2.3959635161          -0.39337850312
P    1   1.00
      0.61776161679          1.0000000
P    1   1.00
      0.16993376871          1.0000000
D    1   1.00
      0.5500000              1.0000000
****
Sc     0
S    8   1.00
 191612.9187400              0.23076475942D-03
  28723.8503630              0.17890329946D-02
   6537.0116490              0.92990401140D-02
   1850.3097171              0.37739438011D-01
    602.38855156             0.12227148359
    216.17324766             0.28814821470
     83.712517880            0.40517543099
     32.908707189            0.20566019623
S    4   1.00
    211.34393234            -0.24527991462D-01
     65.128920139           -0.11570158142
     10.034311535            0.55995283317
      4.1596884597           0.56087765073
S    2   1.00
      6.0009041613          -0.22840494325
      0.98255784150          0.71948970378
S    1   1.00
      0.42483192773          1.0000000
S    1   1.00
      0.77185462096D-01      1.0000000
S    1   1.00
      0.30147219702D-01      1.0000000
P    6   1.00
    947.34122823             0.24737208744D-02
    224.09699732             0.19742967060D-01
     71.560334882            0.90357147549D-01
     26.444824490            0.25201602503
     10.393798285            0.39675535929
      4.1606304559           0.23208624517
P    3   1.00
     15.565737135           -0.27129423974D-01
      2.1121544865           0.55109256629
      0.84184709021          1.0090635806
P    1   1.00
      0.32297542652          1.0000000
P    1   1.00
      0.0897480              1.0000000
D    4   1.00
     30.989390993            0.11902837431D-01
      8.6905465069           0.67655856850D-01
      2.9520256337           0.21332539722
      1.0761910745           0.38391075578
D    1   1.00
      0.38338915095           .43354716259
D    1   1.00
      0.12534686113           .24509263822
D    1   1.00
      0.0410000              1.0000000
F    1   1.00
      0.3450000              1.0000000
****


























































