%chk=i3-maj.chk
%mem=616Gb
%nprocshared=24
#P  UMN15/genecp scf=(maxcyc=500) freq scrf=(smd,solvent=DiChloroEthane)  

freq

0 1
C                  5.8576240000     -0.6952640000      0.3341320000
C                  6.9638200000     -0.8411600000     -0.5121450000
C                  8.0574090000     -1.6073200000     -0.1071160000
C                  8.0455250000     -2.2368620000      1.1401150000
C                  6.9394030000     -2.0982400000      1.9824070000
C                  5.8461940000     -1.3275340000      1.5840750000
C                  2.2762660000      0.3252740000      0.3343020000
C                  1.6024610000     -0.0088830000     -0.9960030000
C                  1.4046840000     -0.1137810000      1.5139220000
H                  6.9635410000     -0.3543710000     -1.4915810000
H                  8.9170630000     -1.7189750000     -0.7711610000
H                  8.8992970000     -2.8411130000      1.4548450000
H                  6.9262330000     -2.5931160000      2.9557850000
H                  4.9790910000     -1.2183400000      2.2390310000
O                  0.1964950000      0.1168850000      1.5007480000
O                  0.4166390000      0.2921010000     -1.1535500000
O                 -2.9835160000      0.6992150000      1.5782530000
O                 -2.7666280000      0.8239020000     -1.6268890000
O                 -0.2236960000     -2.1676430000     -0.1073100000
S                 -1.2665680000     -2.9252370000     -0.8652130000
S                 -3.3092140000     -0.5861430000      2.2823140000
S                 -2.5188240000      2.2647240000     -1.2787170000
O                 -2.3251320000     -1.9144700000     -1.1886870000
O                 -1.6833270000     -4.2026240000     -0.3530890000
O                 -2.3735040000     -1.5819840000      1.6790170000
O                 -3.4538060000     -0.5554160000      3.7110330000
O                 -1.5559650000      2.2181630000     -0.1421760000
O                 -2.2289500000      3.1679060000     -2.3623260000
C                 -4.1276700000      2.8487000000     -0.5340150000
C                 -4.9472560000     -1.0182700000      1.5637250000
C                 -0.4856890000     -3.2639230000     -2.5036070000
F                 -3.8671990000      3.5292840000      0.5629730000
F                 -4.9005790000      1.8196590000     -0.2499280000
F                 -4.7341520000      3.6265330000     -1.4080910000
F                 -4.8195330000     -1.0530950000      0.2464620000
F                 -5.8264930000     -0.0966380000      1.9010860000
F                 -5.3356990000     -2.1958810000      2.0062210000
F                 -0.4451630000     -2.1463530000     -3.2110210000
F                 -1.1965330000     -4.1669210000     -3.1458500000
F                  0.7423800000     -3.7111850000     -2.3159470000
C                  4.7101020000      0.1766020000     -0.0992700000
H                  4.6506480000      0.1929310000     -1.1995020000
C                  4.8674110000      1.6773750000      0.3064500000
C                  6.0233190000      2.2781970000     -0.3832580000
C                  5.0562750000      1.7737810000      1.7694050000
C                  1.3045900000      2.7678890000      0.2192600000
C                  2.4468730000      3.0316630000     -1.8804880000
C                  1.3015840000      3.2856700000     -1.0219920000
H                  0.4843360000      2.9120910000      0.9216570000
H                  2.4126020000      3.2525880000     -2.9502670000
H                  0.4598760000      3.8676420000     -1.4013010000
N                  6.9536880000      2.7078130000     -0.9189770000
N                  5.1720610000      1.7895680000      2.9204430000
N                  3.6383300000      2.3737790000     -0.0737410000
N                  3.5709230000      2.5906390000     -1.4184320000
C                  2.4602940000      1.9086210000      0.6116330000
H                  2.6523760000      1.9762380000      1.6943700000
Lu                -1.5048120000     -0.1408020000      0.0204860000
O                  3.5199830000     -0.3044600000      0.4908550000
C                  2.0861940000     -0.7222010000      2.6767180000
H                  2.5210290000     -1.6831490000      2.3558210000
H                  2.9337370000     -0.0880570000      2.9867220000
H                  1.3724990000     -0.8682560000      3.4944240000
C                  2.3608570000     -0.7383340000     -2.0439920000
H                  3.0815430000     -0.0564670000     -2.5235670000
H                  2.9266340000     -1.5673610000     -1.5939720000
H                  1.6661920000     -1.0946690000     -2.8107120000

H     0
S    3   1.00
     13.0107010              0.19682158D-01
      1.9622572              0.13796524
      0.44453796             0.47831935
S    1   1.00
      0.12194962             1.0000000
P    1   1.00
      0.8000000              1.0000000
****
C     0
S    5   1.00
   1238.4016938              0.54568832082D-02
    186.29004992             0.40638409211D-01
     42.251176346            0.18025593888
     11.676557932            0.46315121755
      3.5930506482           0.44087173314
S    1   1.00
      0.40245147363          1.0000000
S    1   1.00
      0.13090182668          1.0000000
P    3   1.00
      9.4680970621           0.38387871728D-01
      2.0103545142           0.21117025112
      0.54771004707          0.51328172114
P    1   1.00
      0.15268613795          1.0000000
D    1   1.00
      0.8000000              1.0000000
****
N     0
S    5   1.00
   1712.8415853             -0.53934125305D-02
    257.64812677            -0.40221581118D-01
     58.458245853           -0.17931144990
     16.198367905           -0.46376317823
      5.0052600809          -0.44171422662
S    1   1.00
      0.58731856571          1.0000000
S    1   1.00
      0.18764592253          1.0000000
P    3   1.00
     13.571470233           -0.40072398852D-01
      2.9257372874          -0.21807045028
      0.79927750754         -0.51294466049
P    1   1.00
      0.21954348034          1.0000000
D    1   1.00
      1.0000000              1.0000000
****
O     0
S    5   1.00
   2266.1767785             -0.53431809926D-02
    340.87010191            -0.39890039230D-01
     77.363135167           -0.17853911985
     21.479644940           -0.46427684959
      6.6589433124          -0.44309745172
S    1   1.00
      0.80975975668          1.0000000
S    1   1.00
      0.25530772234          1.0000000
P    3   1.00
     17.721504317            0.43394573193D-01
      3.8635505440           0.23094120765
      1.0480920883           0.51375311064
P    1   1.00
      0.27641544411          1.0000000
D    1   1.00
      1.2000000              1.0000000
****
F     0
S    5   1.00
   2894.8325990             -0.53408255515D-02
    435.41939120            -0.39904258866D-01
     98.843328866           -0.17912768038
     27.485198001           -0.46758090825
      8.5405498171          -0.44653131020
S    1   1.00
      1.0654578038           1.0000000
S    1   1.00
      0.33247346748          1.0000000
P    3   1.00
     22.696633924           -0.45212874436D-01
      4.9872339257          -0.23754317067
      1.3491613954          -0.51287353587
P    1   1.00
      0.34829881977          1.0000000
D    1   1.00
      1.4000000              1.0000000
****
S     0
S    5   1.00
   9184.9303010             -0.22294387756D-02
   1381.5105503             -0.16683029937D-01
    313.87147580            -0.75262436116D-01
     88.053870623           -0.19376827038
     27.039914905           -0.17718020803
S    3   1.00
     45.648731303           -0.10736062573
      4.9664522326           0.65066293018
      2.0116242047           0.59712155354
S    1   1.00
      0.35661077013          1.0000000
S    1   1.00
      0.13507221477          1.0000000
P    5   1.00
    261.98233439            -0.92729929822D-02
     61.306894736           -0.66547669241D-01
     19.103729887           -0.24828595903
      6.6567720378          -0.48703847402
      2.3959635161          -0.39337850312
P    1   1.00
      0.61776161679          1.0000000
P    1   1.00
      0.16993376871          1.0000000
D    1   1.00
      0.5500000              1.0000000
****
Lu     0
S    5   1.00
  95169.767000               0.22000000000D-04
  15488.403000               0.14500000000D-03
   3776.2335000              0.65100000000D-03
   1079.0501000              0.20380000000D-02
    268.95380000             0.51270000000D-02
S    1   1.00
     63.467900000            1.0000000
S    1   1.00
     45.133200000            1.0000000
S    1   1.00
     21.456800000            1.0000000
S    1   1.00
      5.3483000000           1.0000000
S    1   1.00
      2.6778000000           1.0000000
S    1   1.00
      1.0287000000           1.0000000
S    1   1.00
      0.44080000000          1.0000000
S    1   1.00
      0.79100000000D-01      1.0000000
S    1   1.00
      0.31300000000D-01      1.0000000
P    3   1.00
     12.333733920           -0.15313031066
     11.080331415           -0.20300664852
      2.0341747228          -0.19458361263
P    6   1.00
   1500.5317313             -0.10192569555D-02
    382.39748937            -0.59476212135D-02
    132.99969628            -0.16265160929D-01
     46.110032419           -0.35623845839D-01
     15.583529011            0.23709171074
      5.7856677022          -0.30670977844
P    1   1.00
      3.7823361008           1.0000000
P    1   1.00
      1.3682592248           1.0000000
P    1   1.00
      0.57288205601          1.0000000
P    1   1.00
      0.22793165135          1.0000000
P    1   1.00
      0.81403917986D-01      1.0000000
P    1   1.00
      0.29091071778D-01      1.0000000
D    6   1.00
    484.52750000             0.22860000000D-02
    146.66550000             0.18629000000D-01
     56.377900000            0.74088000000D-01
     23.671100000            0.16155400000
      9.4401000000           0.30809100000
      4.3712000000           0.44833400000
D    1   1.00
      1.9580000000           1.0000000
D    1   1.00
      0.72720000000          1.0000000
D    1   1.00
      0.24600000000          1.0000000
D    1   1.00
      0.74400000000D-01      1.0000000
F    5   1.00
    175.15590000             0.41020000000D-02
     62.890900000            0.39086000000D-01
     28.362400000            0.14704400000
     13.247800000            0.27109200000
      6.1440000000           0.34566500000
F    1   1.00
      2.7623000000           1.0000000
F    1   1.00
      1.1574000000           1.0000000
F    1   1.00
      0.42440000000          1.0000000
G    1   1.00
      0.70090000000          1.0000000
****

Lu     0
Lu-ECP     5     28
h potential
  1
2      1.00000000             0.00000000
s-h potential
  1
2     35.16209700           989.99558400
p-h potential
  1
2     19.46440200           278.86565200
d-h potential
  1
2     10.00686500            71.00917800
f-h potential
  1
2     23.51793200           -47.40589000
g-h potential
  1
2     29.41223800           -35.55714600












