%chk=preplx.chk
%mem=92Gb
%nprocshared=24
#P  MN15/gen scf=(maxcyc=500) opt=(modred) scrf=(smd,solvent=DiChloroEthane)  

Opt

0 1
C                  5.56906072    1.01981817    0.56608649
 C                  6.32790772    0.54931017    1.66792349
 C                  7.68640372    0.83077617    1.75033149
 C                  8.30121772    1.56171417    0.72929549
 C                  7.56704672    2.02421217   -0.37591851
 C                  6.20949372    1.76439017   -0.46012851
 C                  1.76567972    1.11935817   -0.16470651
 C                  1.14002672    1.53463417    1.03550749
 C                  0.99311372    0.53457517   -1.18571751
 H                  5.82420272   -0.01936583    2.45261549
 H                  8.26995672    0.47979417    2.60295049
 H                  9.37027172    1.77839417    0.79068849
 H                  8.06733872    2.58953817   -1.16400251
 H                  5.63338672    2.12097317   -1.31667551
 O                 -0.23061028    0.21803217   -1.11360651
 O                 -0.09823828    1.55332717    1.27949249
 O                  1.97087472    1.96939417    1.97679349
 O                  1.64188172    0.26500717   -2.31821651
 C                  1.40993772    2.37405417    3.22345149
 C                  0.88995772   -0.16518383   -3.44767251
 H                  2.25489972    2.61799217    3.87626449
 H                  0.81480672    1.55990717    3.66013149
 H                  0.76945472    3.25556417    3.09374249
 H                  1.62155272   -0.38697283   -4.23352451
 H                  0.21185572    0.63302917   -3.78231151
 H                  0.29338472   -1.05930383   -3.21889551
 O                 -2.90675628   -0.93040083   -0.48954351
 O                 -2.74093628    0.49916917    2.05323849
 O                 -0.98704828    2.83448717   -1.03434651
 S                 -1.91799428    3.71294117   -0.28374551
 S                 -3.65729828   -0.26318783   -1.59699951
 S                 -1.99818328   -0.72560383    2.49195949
 O                 -2.67831228    2.80516517    0.63547549
 O                 -2.67911128    4.69697217   -1.01246451
 O                 -3.09477228    1.11788717   -1.65087151
 O                 -3.82459328   -0.98522083   -2.83135551
 O                 -1.00230828   -0.99755383    1.42607349
 O                 -1.54635428   -0.76385583    3.86254349
 C                 -3.25745028   -2.09984883    2.34433949
 C                 -5.33712928   -0.01788183   -0.89000151
 C                 -0.82226328    4.69003117    0.87481049
 F                 -2.78787828   -3.04961483    1.55382049
 F                 -4.39056828   -1.63759383    1.85534649
 F                 -3.47691228   -2.60700783    3.54404549
 F                 -5.23153128    0.67676217    0.22873049
 F                 -5.88441828   -1.19178883   -0.63662851
 F                 -6.08419928    0.64299917   -1.75423351
 F                  0.44625072    4.36054417    0.68838349
 F                 -1.15514428    4.44208817    2.12849849
 F                 -0.97192728    5.97788117    0.62955549
 C                  4.17809372    0.72738417    0.51817649
 H                  3.76931972    0.13069317    1.34259249
 C                  4.28145328   -2.46974017   -1.07458849
 C                  5.31816528   -2.96196517   -0.24579649
 C                  4.58163628   -1.94170117   -2.34972249
 C                  0.88771328   -3.86764917   -1.55290149
 C                  1.45258128   -3.56393017    0.74426851
 C                  0.51378128   -3.96293617   -0.22750849
 H                  0.23079528   -4.16691317   -2.37018949
 H                  1.22276728   -3.61152517    1.81037951
 H                 -0.46981072   -4.31822717    0.07564751
 N                  6.19159628   -3.31180317    0.44133851
 N                  4.82209628   -1.42585417   -3.36767749
 N                  2.97200228   -3.00453817   -0.84029449
 N                  2.64198228   -3.08863717    0.44206451
 Sc                -1.70520928    0.89206317    0.14030049
 C                  3.22186972    1.43248517   -0.36837551
 H                  3.41308572    2.50901017   -0.18486551
 H                  3.51200372    1.29486617   -1.42537351
 C                  2.16524328   -3.38837517   -1.84205049
 H                  2.56422028   -3.31826017   -2.85513449

51 53 F

H     0
S    3   1.00
     13.0107010              0.19682158D-01
      1.9622572              0.13796524
      0.44453796             0.47831935
S    1   1.00
      0.12194962             1.0000000
P    1   1.00
      0.8000000              1.0000000
****
C     0
S    5   1.00
   1238.4016938              0.54568832082D-02
    186.29004992             0.40638409211D-01
     42.251176346            0.18025593888
     11.676557932            0.46315121755
      3.5930506482           0.44087173314
S    1   1.00
      0.40245147363          1.0000000
S    1   1.00
      0.13090182668          1.0000000
P    3   1.00
      9.4680970621           0.38387871728D-01
      2.0103545142           0.21117025112
      0.54771004707          0.51328172114
P    1   1.00
      0.15268613795          1.0000000
D    1   1.00
      0.8000000              1.0000000
****
N     0
S    5   1.00
   1712.8415853             -0.53934125305D-02
    257.64812677            -0.40221581118D-01
     58.458245853           -0.17931144990
     16.198367905           -0.46376317823
      5.0052600809          -0.44171422662
S    1   1.00
      0.58731856571          1.0000000
S    1   1.00
      0.18764592253          1.0000000
P    3   1.00
     13.571470233           -0.40072398852D-01
      2.9257372874          -0.21807045028
      0.79927750754         -0.51294466049
P    1   1.00
      0.21954348034          1.0000000
D    1   1.00
      1.0000000              1.0000000
****
O     0
S    5   1.00
   2266.1767785             -0.53431809926D-02
    340.87010191            -0.39890039230D-01
     77.363135167           -0.17853911985
     21.479644940           -0.46427684959
      6.6589433124          -0.44309745172
S    1   1.00
      0.80975975668          1.0000000
S    1   1.00
      0.25530772234          1.0000000
P    3   1.00
     17.721504317            0.43394573193D-01
      3.8635505440           0.23094120765
      1.0480920883           0.51375311064
P    1   1.00
      0.27641544411          1.0000000
D    1   1.00
      1.2000000              1.0000000
****
F     0
S    5   1.00
   2894.8325990             -0.53408255515D-02
    435.41939120            -0.39904258866D-01
     98.843328866           -0.17912768038
     27.485198001           -0.46758090825
      8.5405498171          -0.44653131020
S    1   1.00
      1.0654578038           1.0000000
S    1   1.00
      0.33247346748          1.0000000
P    3   1.00
     22.696633924           -0.45212874436D-01
      4.9872339257          -0.23754317067
      1.3491613954          -0.51287353587
P    1   1.00
      0.34829881977          1.0000000
D    1   1.00
      1.4000000              1.0000000
****
S     0
S    5   1.00
   9184.9303010             -0.22294387756D-02
   1381.5105503             -0.16683029937D-01
    313.87147580            -0.75262436116D-01
     88.053870623           -0.19376827038
     27.039914905           -0.17718020803
S    3   1.00
     45.648731303           -0.10736062573
      4.9664522326           0.65066293018
      2.0116242047           0.59712155354
S    1   1.00
      0.35661077013          1.0000000
S    1   1.00
      0.13507221477          1.0000000
P    5   1.00
    261.98233439            -0.92729929822D-02
     61.306894736           -0.66547669241D-01
     19.103729887           -0.24828595903
      6.6567720378          -0.48703847402
      2.3959635161          -0.39337850312
P    1   1.00
      0.61776161679          1.0000000
P    1   1.00
      0.16993376871          1.0000000
D    1   1.00
      0.5500000              1.0000000
****
Sc     0
S    8   1.00
 191612.9187400              0.23076475942D-03
  28723.8503630              0.17890329946D-02
   6537.0116490              0.92990401140D-02
   1850.3097171              0.37739438011D-01
    602.38855156             0.12227148359
    216.17324766             0.28814821470
     83.712517880            0.40517543099
     32.908707189            0.20566019623
S    4   1.00
    211.34393234            -0.24527991462D-01
     65.128920139           -0.11570158142
     10.034311535            0.55995283317
      4.1596884597           0.56087765073
S    2   1.00
      6.0009041613          -0.22840494325
      0.98255784150          0.71948970378
S    1   1.00
      0.42483192773          1.0000000
S    1   1.00
      0.77185462096D-01      1.0000000
S    1   1.00
      0.30147219702D-01      1.0000000
P    6   1.00
    947.34122823             0.24737208744D-02
    224.09699732             0.19742967060D-01
     71.560334882            0.90357147549D-01
     26.444824490            0.25201602503
     10.393798285            0.39675535929
      4.1606304559           0.23208624517
P    3   1.00
     15.565737135           -0.27129423974D-01
      2.1121544865           0.55109256629
      0.84184709021          1.0090635806
P    1   1.00
      0.32297542652          1.0000000
P    1   1.00
      0.0897480              1.0000000
D    4   1.00
     30.989390993            0.11902837431D-01
      8.6905465069           0.67655856850D-01
      2.9520256337           0.21332539722
      1.0761910745           0.38391075578
D    1   1.00
      0.38338915095           .43354716259
D    1   1.00
      0.12534686113           .24509263822
D    1   1.00
      0.0410000              1.0000000
F    1   1.00
      0.3450000              1.0000000
****












































































