%chk=preplx.chk
%mem=616Gb
%nprocshared=24
#P UMN15/genecp scf=(maxcyc=500) opt scrf=(smd,solvent=DiChloroEthane)  

Opt

0 1
 C                  5.63561500   -1.07802100    0.22686700
 C                  6.79409600   -0.84959000   -0.54285000
 C                  8.01214300   -1.36877400   -0.11649300
 C                  8.07461700   -2.09705700    1.07561000
 C                  6.92587700   -2.31469500    1.85193100
 C                  5.70327200   -1.81130500    1.43324200
 C                  2.00163100   -0.52975300    0.25990000
 C                  1.43416400    0.05122300   -0.90078800
 C                  1.23398600   -0.82801700    1.42736900
 H                  6.72266800   -0.26902200   -1.46520500
 H                  8.91522800   -1.20295400   -0.70616600
 H                  9.03324400   -2.49936900    1.41092300
 H                  6.99562500   -2.87808300    2.78403100
 H                  4.79488100   -1.95786400    2.02265000
 O                  0.03745300   -0.47861000    1.58478800
 O                  0.20560500    0.22089800   -1.07139900
 O                  2.28563100    0.43491600   -1.84157000
 O                  1.87287100   -1.46803800    2.37587700
 C                  1.73558600    0.93583800   -3.06722900
 C                  1.21237200   -1.63337600    3.63086200
 H                  2.58326400    1.31365000   -3.64859300
 H                  1.01391200    1.73861700   -2.86485100
 H                  1.23239100    0.12737800   -3.61288400
 H                  1.91090900   -2.17920600    4.27303300
 H                  0.28395000   -2.20674800    3.50605400
 H                  0.98547300   -0.65269700    4.07105600
 O                 -3.00848400    0.30717500    1.83844600
 O                 -2.60482400    1.12989800   -1.34372800
 O                 -0.53864800   -2.49863200   -0.21990500
 S                 -1.39643900   -2.88284300   -1.37632600
 S                 -3.73219500   -0.99163600    2.00531100
 S                 -2.05074100    2.40738500   -0.79724800
 O                 -2.20052500   -1.66398400   -1.70689300
 O                 -2.09189100   -4.14306300   -1.32157300
 O                 -2.99425000   -1.95635000    1.13489500
 O                 -4.09291200   -1.40553800    3.33365200
 O                 -1.31826100    2.04860000    0.44639400
 O                 -1.39010800    3.29273500   -1.73069100
 C                 -3.53794100    3.32676300   -0.22224000
 C                 -5.28773200   -0.69384700    1.07092700
 C                 -0.22357400   -3.05189800   -2.79043800
 F                 -3.14740700    4.32951700    0.54427700
 F                 -4.32868400    2.52415200    0.46332000
 F                 -4.18621500    3.79738700   -1.27115900
 F                 -4.95631300   -0.36570600   -0.17103300
 F                 -5.95831800    0.29631300    1.62496200
 F                 -6.02541500   -1.78514900    1.05944900
 F                  0.70076500   -2.10389100   -2.73962800
 F                 -0.88954000   -2.95135700   -3.92457000
 F                  0.36310700   -4.23146700   -2.72209000
 C                  4.39183100   -0.53077200   -0.22624600
 H                  4.33694600    0.10238900   -1.11769300
 C                  4.42903600    1.93128400    0.93348700
 C                  5.79532700    2.10303800    0.61732200
 C                  4.03149800    1.35971400    2.15930800
 C                  1.35392300    3.61981000   -0.20222100
 C                  3.12048000    3.77346400   -1.78361800
 C                  1.80111600    4.08282900   -1.43172300
 H                  0.34572900    3.81046400    0.16019100
 H                  3.55359300    4.09578600   -2.73317900
 H                  1.15687000    4.65224200   -2.10154100
 N                  6.93150800    2.20535100    0.37696700
 N                  3.69881400    0.84218000    3.15101600
 N                  3.48457800    2.65105500    0.16143400
 N                  3.93331300    3.06958400   -1.01265900
 C                  2.22729100    2.89494800    0.59635200
 H                  1.96054900    2.51052800    1.58232500
 Lu                -1.58462500   -0.35298800    0.11100500
 O                  3.32336000   -0.90571700    0.36491300

H     0
S    3   1.00
     13.0107010              0.19682158D-01
      1.9622572              0.13796524
      0.44453796             0.47831935
S    1   1.00
      0.12194962             1.0000000
P    1   1.00
      0.8000000              1.0000000
****
C     0
S    5   1.00
   1238.4016938              0.54568832082D-02
    186.29004992             0.40638409211D-01
     42.251176346            0.18025593888
     11.676557932            0.46315121755
      3.5930506482           0.44087173314
S    1   1.00
      0.40245147363          1.0000000
S    1   1.00
      0.13090182668          1.0000000
P    3   1.00
      9.4680970621           0.38387871728D-01
      2.0103545142           0.21117025112
      0.54771004707          0.51328172114
P    1   1.00
      0.15268613795          1.0000000
D    1   1.00
      0.8000000              1.0000000
****
N     0
S    5   1.00
   1712.8415853             -0.53934125305D-02
    257.64812677            -0.40221581118D-01
     58.458245853           -0.17931144990
     16.198367905           -0.46376317823
      5.0052600809          -0.44171422662
S    1   1.00
      0.58731856571          1.0000000
S    1   1.00
      0.18764592253          1.0000000
P    3   1.00
     13.571470233           -0.40072398852D-01
      2.9257372874          -0.21807045028
      0.79927750754         -0.51294466049
P    1   1.00
      0.21954348034          1.0000000
D    1   1.00
      1.0000000              1.0000000
****
O     0
S    5   1.00
   2266.1767785             -0.53431809926D-02
    340.87010191            -0.39890039230D-01
     77.363135167           -0.17853911985
     21.479644940           -0.46427684959
      6.6589433124          -0.44309745172
S    1   1.00
      0.80975975668          1.0000000
S    1   1.00
      0.25530772234          1.0000000
P    3   1.00
     17.721504317            0.43394573193D-01
      3.8635505440           0.23094120765
      1.0480920883           0.51375311064
P    1   1.00
      0.27641544411          1.0000000
D    1   1.00
      1.2000000              1.0000000
****
F     0
S    5   1.00
   2894.8325990             -0.53408255515D-02
    435.41939120            -0.39904258866D-01
     98.843328866           -0.17912768038
     27.485198001           -0.46758090825
      8.5405498171          -0.44653131020
S    1   1.00
      1.0654578038           1.0000000
S    1   1.00
      0.33247346748          1.0000000
P    3   1.00
     22.696633924           -0.45212874436D-01
      4.9872339257          -0.23754317067
      1.3491613954          -0.51287353587
P    1   1.00
      0.34829881977          1.0000000
D    1   1.00
      1.4000000              1.0000000
****
S     0
S    5   1.00
   9184.9303010             -0.22294387756D-02
   1381.5105503             -0.16683029937D-01
    313.87147580            -0.75262436116D-01
     88.053870623           -0.19376827038
     27.039914905           -0.17718020803
S    3   1.00
     45.648731303           -0.10736062573
      4.9664522326           0.65066293018
      2.0116242047           0.59712155354
S    1   1.00
      0.35661077013          1.0000000
S    1   1.00
      0.13507221477          1.0000000
P    5   1.00
    261.98233439            -0.92729929822D-02
     61.306894736           -0.66547669241D-01
     19.103729887           -0.24828595903
      6.6567720378          -0.48703847402
      2.3959635161          -0.39337850312
P    1   1.00
      0.61776161679          1.0000000
P    1   1.00
      0.16993376871          1.0000000
D    1   1.00
      0.5500000              1.0000000
****
Lu     0
S    5   1.00
  95169.767000               0.22000000000D-04
  15488.403000               0.14500000000D-03
   3776.2335000              0.65100000000D-03
   1079.0501000              0.20380000000D-02
    268.95380000             0.51270000000D-02
S    1   1.00
     63.467900000            1.0000000
S    1   1.00
     45.133200000            1.0000000
S    1   1.00
     21.456800000            1.0000000
S    1   1.00
      5.3483000000           1.0000000
S    1   1.00
      2.6778000000           1.0000000
S    1   1.00
      1.0287000000           1.0000000
S    1   1.00
      0.44080000000          1.0000000
S    1   1.00
      0.79100000000D-01      1.0000000
S    1   1.00
      0.31300000000D-01      1.0000000
P    3   1.00
     12.333733920           -0.15313031066
     11.080331415           -0.20300664852
      2.0341747228          -0.19458361263
P    6   1.00
   1500.5317313             -0.10192569555D-02
    382.39748937            -0.59476212135D-02
    132.99969628            -0.16265160929D-01
     46.110032419           -0.35623845839D-01
     15.583529011            0.23709171074
      5.7856677022          -0.30670977844
P    1   1.00
      3.7823361008           1.0000000
P    1   1.00
      1.3682592248           1.0000000
P    1   1.00
      0.57288205601          1.0000000
P    1   1.00
      0.22793165135          1.0000000
P    1   1.00
      0.81403917986D-01      1.0000000
P    1   1.00
      0.29091071778D-01      1.0000000
D    6   1.00
    484.52750000             0.22860000000D-02
    146.66550000             0.18629000000D-01
     56.377900000            0.74088000000D-01
     23.671100000            0.16155400000
      9.4401000000           0.30809100000
      4.3712000000           0.44833400000
D    1   1.00
      1.9580000000           1.0000000
D    1   1.00
      0.72720000000          1.0000000
D    1   1.00
      0.24600000000          1.0000000
D    1   1.00
      0.74400000000D-01      1.0000000
F    5   1.00
    175.15590000             0.41020000000D-02
     62.890900000            0.39086000000D-01
     28.362400000            0.14704400000
     13.247800000            0.27109200000
      6.1440000000           0.34566500000
F    1   1.00
      2.7623000000           1.0000000
F    1   1.00
      1.1574000000           1.0000000
F    1   1.00
      0.42440000000          1.0000000
G    1   1.00
      0.70090000000          1.0000000
****

Lu     0
Lu-ECP     5     28
h potential
  1
2      1.00000000             0.00000000
s-h potential
  1
2     35.16209700           989.99558400
p-h potential
  1
2     19.46440200           278.86565200
d-h potential
  1
2     10.00686500            71.00917800
f-h potential
  1
2     23.51793200           -47.40589000
g-h potential
  1
2     29.41223800           -35.55714600



