%chk=TS-maj.chk
%mem=92Gb
%nprocshared=24
#P UMN15/genecp scf=(maxcyc=500) irc=(maxpoints=100,recorrect=never,calcfc,maxcycles=500,nogradstop) scrf=(smd,solvent=DiChloroEthane)  

IRC

0 1
 C                  5.70108500   -0.70957600    0.15919100
 C                  6.78732200   -0.71385900   -0.72433100
 C                  7.88327300   -1.54159100   -0.47786400
 C                  7.89239100   -2.37195900    0.64592400
 C                  6.80467700   -2.37431100    1.52302400
 C                  5.70830100   -1.54444900    1.28381200
 C                  2.09936800    0.13991700    0.36257900
 C                  1.46702800    0.24592400   -0.94311100
 C                  1.26750500   -0.17241600    1.51340500
 H                  6.76897500   -0.07035600   -1.60834600
 H                  8.72790400   -1.54447800   -1.17006700
 H                  8.74799000   -3.02395100    0.83577600
 H                  6.80769200   -3.02794700    2.39796400
 H                  4.84937600   -1.54556700    1.95854000
 O                  0.04758300    0.09322700    1.57670500
 O                  0.24790700    0.40756200   -1.12928000
 O                  2.31193400    0.28728300   -1.94639700
 O                  1.91874200   -0.62365100    2.55025300
 C                  1.80388800    0.62965700   -3.24275100
 C                  1.16748100   -0.88317100    3.74463100
 H                  2.65928900    0.58910500   -3.92410800
 H                  1.37988600    1.64388600   -3.21890700
 H                  1.02917500   -0.08020900   -3.55401500
 H                  1.88675500   -1.25877200    4.47853200
 H                  0.39455200   -1.63700600    3.54372000
 H                  0.69839900    0.04157600    4.10527800
 O                 -3.27473400    0.52549300    1.49056300
 O                 -2.72225500    0.92764200   -1.57251900
 O                 -0.21888100   -2.20750200    0.08596700
 S                 -1.07256900   -2.90694600   -0.91641100
 S                 -3.70062200   -0.82721300    1.97316300
 S                 -2.48631700    2.33121000   -1.10065700
 O                 -2.00143800   -1.85660400   -1.45039700
 O                 -1.64337200   -4.18019900   -0.56211000
 O                 -2.65963900   -1.75957300    1.44281100
 O                 -4.10570200   -0.96162200    3.34518100
 O                 -1.63069800    2.20564600    0.11195100
 O                 -2.09012600    3.30281900   -2.09060900
 C                 -4.15191200    2.89112300   -0.46686300
 C                 -5.16346500   -1.18304000    0.91643500
 C                  0.05873700   -3.26243900   -2.32586900
 F                 -4.00701300    3.40297000    0.73831400
 F                 -4.98816800    1.87319000   -0.42278300
 F                 -4.62448300    3.81132900   -1.28506500
 F                 -4.78601000   -1.06079700   -0.34815400
 F                 -6.12273600   -0.31927400    1.18030300
 F                 -5.58984100   -2.40964700    1.13655600
 F                  0.84216500   -2.21747300   -2.54646700
 F                 -0.65391000   -3.51267800   -3.40620700
 F                  0.80198100   -4.30949700   -2.02790800
 C                  4.53927400    0.21570300   -0.09681700
 H                  4.43997100    0.41878300   -1.17475700
 C                  4.74532500    1.62489700    0.56030300
 C                  5.94485400    2.29229500    0.02605800
 C                  4.87421400    1.46740000    2.02191400
 C                  1.23536300    2.91340400    0.53005200
 C                  2.50308400    3.57972000   -1.40244900
 C                  1.27719700    3.58763000   -0.64869700
 H                  0.34865400    2.88439500    1.16142500
 H                  2.57676100    4.07893400   -2.37091900
 H                  0.40997400    4.13315900   -1.02484300
 N                  6.91397600    2.77190800   -0.38315800
 N                  4.96427500    1.29108900    3.16136600
 N                  3.54658200    2.42489600    0.23642500
 N                  3.58971200    3.01369100   -0.96685600
 C                  2.38996200    2.14743000    0.91398100
 H                  2.52997300    1.86880200    1.96271400
 Lu                -1.55684200   -0.18321300    0.07300600
 O                  3.37982700   -0.37538800    0.44587600

H     0
S    3   1.00
     13.0107010              0.19682158D-01
      1.9622572              0.13796524
      0.44453796             0.47831935
S    1   1.00
      0.12194962             1.0000000
P    1   1.00
      0.8000000              1.0000000
****
C     0
S    5   1.00
   1238.4016938              0.54568832082D-02
    186.29004992             0.40638409211D-01
     42.251176346            0.18025593888
     11.676557932            0.46315121755
      3.5930506482           0.44087173314
S    1   1.00
      0.40245147363          1.0000000
S    1   1.00
      0.13090182668          1.0000000
P    3   1.00
      9.4680970621           0.38387871728D-01
      2.0103545142           0.21117025112
      0.54771004707          0.51328172114
P    1   1.00
      0.15268613795          1.0000000
D    1   1.00
      0.8000000              1.0000000
****
N     0
S    5   1.00
   1712.8415853             -0.53934125305D-02
    257.64812677            -0.40221581118D-01
     58.458245853           -0.17931144990
     16.198367905           -0.46376317823
      5.0052600809          -0.44171422662
S    1   1.00
      0.58731856571          1.0000000
S    1   1.00
      0.18764592253          1.0000000
P    3   1.00
     13.571470233           -0.40072398852D-01
      2.9257372874          -0.21807045028
      0.79927750754         -0.51294466049
P    1   1.00
      0.21954348034          1.0000000
D    1   1.00
      1.0000000              1.0000000
****
O     0
S    5   1.00
   2266.1767785             -0.53431809926D-02
    340.87010191            -0.39890039230D-01
     77.363135167           -0.17853911985
     21.479644940           -0.46427684959
      6.6589433124          -0.44309745172
S    1   1.00
      0.80975975668          1.0000000
S    1   1.00
      0.25530772234          1.0000000
P    3   1.00
     17.721504317            0.43394573193D-01
      3.8635505440           0.23094120765
      1.0480920883           0.51375311064
P    1   1.00
      0.27641544411          1.0000000
D    1   1.00
      1.2000000              1.0000000
****
F     0
S    5   1.00
   2894.8325990             -0.53408255515D-02
    435.41939120            -0.39904258866D-01
     98.843328866           -0.17912768038
     27.485198001           -0.46758090825
      8.5405498171          -0.44653131020
S    1   1.00
      1.0654578038           1.0000000
S    1   1.00
      0.33247346748          1.0000000
P    3   1.00
     22.696633924           -0.45212874436D-01
      4.9872339257          -0.23754317067
      1.3491613954          -0.51287353587
P    1   1.00
      0.34829881977          1.0000000
D    1   1.00
      1.4000000              1.0000000
****
S     0
S    5   1.00
   9184.9303010             -0.22294387756D-02
   1381.5105503             -0.16683029937D-01
    313.87147580            -0.75262436116D-01
     88.053870623           -0.19376827038
     27.039914905           -0.17718020803
S    3   1.00
     45.648731303           -0.10736062573
      4.9664522326           0.65066293018
      2.0116242047           0.59712155354
S    1   1.00
      0.35661077013          1.0000000
S    1   1.00
      0.13507221477          1.0000000
P    5   1.00
    261.98233439            -0.92729929822D-02
     61.306894736           -0.66547669241D-01
     19.103729887           -0.24828595903
      6.6567720378          -0.48703847402
      2.3959635161          -0.39337850312
P    1   1.00
      0.61776161679          1.0000000
P    1   1.00
      0.16993376871          1.0000000
D    1   1.00
      0.5500000              1.0000000
****
Lu     0
S    5   1.00
  95169.767000               0.22000000000D-04
  15488.403000               0.14500000000D-03
   3776.2335000              0.65100000000D-03
   1079.0501000              0.20380000000D-02
    268.95380000             0.51270000000D-02
S    1   1.00
     63.467900000            1.0000000
S    1   1.00
     45.133200000            1.0000000
S    1   1.00
     21.456800000            1.0000000
S    1   1.00
      5.3483000000           1.0000000
S    1   1.00
      2.6778000000           1.0000000
S    1   1.00
      1.0287000000           1.0000000
S    1   1.00
      0.44080000000          1.0000000
S    1   1.00
      0.79100000000D-01      1.0000000
S    1   1.00
      0.31300000000D-01      1.0000000
P    3   1.00
     12.333733920           -0.15313031066
     11.080331415           -0.20300664852
      2.0341747228          -0.19458361263
P    6   1.00
   1500.5317313             -0.10192569555D-02
    382.39748937            -0.59476212135D-02
    132.99969628            -0.16265160929D-01
     46.110032419           -0.35623845839D-01
     15.583529011            0.23709171074
      5.7856677022          -0.30670977844
P    1   1.00
      3.7823361008           1.0000000
P    1   1.00
      1.3682592248           1.0000000
P    1   1.00
      0.57288205601          1.0000000
P    1   1.00
      0.22793165135          1.0000000
P    1   1.00
      0.81403917986D-01      1.0000000
P    1   1.00
      0.29091071778D-01      1.0000000
D    6   1.00
    484.52750000             0.22860000000D-02
    146.66550000             0.18629000000D-01
     56.377900000            0.74088000000D-01
     23.671100000            0.16155400000
      9.4401000000           0.30809100000
      4.3712000000           0.44833400000
D    1   1.00
      1.9580000000           1.0000000
D    1   1.00
      0.72720000000          1.0000000
D    1   1.00
      0.24600000000          1.0000000
D    1   1.00
      0.74400000000D-01      1.0000000
F    5   1.00
    175.15590000             0.41020000000D-02
     62.890900000            0.39086000000D-01
     28.362400000            0.14704400000
     13.247800000            0.27109200000
      6.1440000000           0.34566500000
F    1   1.00
      2.7623000000           1.0000000
F    1   1.00
      1.1574000000           1.0000000
F    1   1.00
      0.42440000000          1.0000000
G    1   1.00
      0.70090000000          1.0000000
****

Lu     0
Lu-ECP     5     28
h potential
  1
2      1.00000000             0.00000000
s-h potential
  1
2     35.16209700           989.99558400
p-h potential
  1
2     19.46440200           278.86565200
d-h potential
  1
2     10.00686500            71.00917800
f-h potential
  1
2     23.51793200           -47.40589000
g-h potential
  1
2     29.41223800           -35.55714600


