%chk=TS1.chk
%mem=92Gb
%nprocshared=24
#P UMN15/genecp scf=(maxcyc=500) opt=(TS,tight,noeigentest,calcFC) freq scrf=(smd,solvent=DiChloroEthane)  

Opt

0 1
 C                 -4.98304700   -1.44015900   -0.22458700
 C                 -5.28920300   -2.69942300    0.34903900
 C                 -6.49122600   -2.86955800    1.01798600
 C                 -7.37990500   -1.79008100    1.12032600
 C                 -7.07921200   -0.53680300    0.56322200
 C                 -5.88075900   -0.34939300   -0.10557100
 C                 -2.09869400   -0.13841200   -1.16095000
 C                 -1.81375500    0.33895900    0.14442700
 C                 -1.09003800   -0.34896300   -2.14609900
 H                 -4.57310700   -3.51808300    0.25404100
 H                 -6.74479800   -3.83269400    1.46320900
 H                 -8.32563000   -1.92564000    1.65041700
 H                 -7.78589600    0.28864300    0.66245100
 H                 -5.62178600    0.62085900   -0.53576000
 O                  0.13812400   -0.18686500   -1.94243300
 O                 -0.66848300    0.33436500    0.65610500
 O                 -2.84600600    0.81265300    0.82230600
 O                 -1.54001400   -0.74104500   -3.31351200
 C                 -2.59645900    1.27275300    2.15230300
 C                 -0.59554400   -0.85433500   -4.37983100
 H                 -3.52794900    1.73417600    2.49638400
 H                 -1.77693200    2.00618100    2.15768200
 H                 -2.32609200    0.42996200    2.80357400
 H                 -1.16000900   -1.19876600   -5.25235200
 H                  0.18843900   -1.57954400   -4.12318200
 H                 -0.14578700    0.12711700   -4.58159400
 O                  3.10491100   -0.05882800   -1.41713500
 O                  2.35038900    0.45652400    1.71439900
 O                 -0.12596700   -2.43939200   -0.40300100
 S                  0.15003500   -3.05895800    0.92734300
 S                  3.69255300   -1.43378600   -1.40827000
 S                  2.15359800    1.89902600    1.36198400
 O                  0.90743000   -2.03355600    1.70239100
 O                  0.62992100   -4.41672000    0.95539800
 O                  2.76999600   -2.24052500   -0.55037400
 O                  4.11004100   -1.99702800   -2.66460000
 O                  1.56263100    1.91373000   -0.00223300
 O                  1.55159100    2.73325800    2.37634800
 C                  3.84968500    2.57425900    1.14398900
 C                  5.21666700   -1.25976900   -0.39123400
 C                 -1.51200800   -3.14932400    1.71603700
 F                  3.73989000    3.84416800    0.78799800
 F                  4.49802300    1.90896900    0.20960100
 F                  4.50287800    2.48899900    2.28684800
 F                  4.89066500   -0.89656400    0.83587900
 F                  5.99441900   -0.34336000   -0.93517700
 F                  5.84767400   -2.41761400   -0.35782700
 F                 -2.08941900   -1.95684500    1.75661800
 F                 -1.39974800   -3.62162200    2.94029300
 F                 -2.26397800   -3.96443800    0.99114500
 C                 -3.75704700   -1.31189100   -0.91419800
 H                 -3.06316000   -2.16279900   -0.96080200
 C                 -2.89275700    3.13615100   -1.57865300
 C                 -4.28654800    2.96208500   -1.49020600
 C                 -2.16018300    2.68917500   -2.69188800
 C                 -0.26437600    4.48004200    0.60846700
 C                 -2.43991600    4.80865500    1.49517700
 C                 -1.05969400    4.99943100    1.62083300
 H                  0.82239700    4.55369700    0.62463200
 H                 -3.13926800    5.16598400    2.25460200
 H                 -0.64102900    5.52085900    2.48107100
 N                 -5.44111100    2.79458800   -1.45390000
 N                 -1.53655400    2.31780700   -3.60720600
 N                 -2.22350400    3.73148500   -0.49836500
 N                 -3.00638700    4.19485000    0.46874700
 C                 -0.87265700    3.82703900   -0.45283100
 H                 -0.31767800    3.37700400   -1.27615700
 Lu                 1.25218500   -0.50789700   -0.06530600
 O                 -3.42912100   -0.22854500   -1.55319600

H     0
S    3   1.00
     13.0107010              0.19682158D-01
      1.9622572              0.13796524
      0.44453796             0.47831935
S    1   1.00
      0.12194962             1.0000000
P    1   1.00
      0.8000000              1.0000000
****
C     0
S    5   1.00
   1238.4016938              0.54568832082D-02
    186.29004992             0.40638409211D-01
     42.251176346            0.18025593888
     11.676557932            0.46315121755
      3.5930506482           0.44087173314
S    1   1.00
      0.40245147363          1.0000000
S    1   1.00
      0.13090182668          1.0000000
P    3   1.00
      9.4680970621           0.38387871728D-01
      2.0103545142           0.21117025112
      0.54771004707          0.51328172114
P    1   1.00
      0.15268613795          1.0000000
D    1   1.00
      0.8000000              1.0000000
****
N     0
S    5   1.00
   1712.8415853             -0.53934125305D-02
    257.64812677            -0.40221581118D-01
     58.458245853           -0.17931144990
     16.198367905           -0.46376317823
      5.0052600809          -0.44171422662
S    1   1.00
      0.58731856571          1.0000000
S    1   1.00
      0.18764592253          1.0000000
P    3   1.00
     13.571470233           -0.40072398852D-01
      2.9257372874          -0.21807045028
      0.79927750754         -0.51294466049
P    1   1.00
      0.21954348034          1.0000000
D    1   1.00
      1.0000000              1.0000000
****
O     0
S    5   1.00
   2266.1767785             -0.53431809926D-02
    340.87010191            -0.39890039230D-01
     77.363135167           -0.17853911985
     21.479644940           -0.46427684959
      6.6589433124          -0.44309745172
S    1   1.00
      0.80975975668          1.0000000
S    1   1.00
      0.25530772234          1.0000000
P    3   1.00
     17.721504317            0.43394573193D-01
      3.8635505440           0.23094120765
      1.0480920883           0.51375311064
P    1   1.00
      0.27641544411          1.0000000
D    1   1.00
      1.2000000              1.0000000
****
F     0
S    5   1.00
   2894.8325990             -0.53408255515D-02
    435.41939120            -0.39904258866D-01
     98.843328866           -0.17912768038
     27.485198001           -0.46758090825
      8.5405498171          -0.44653131020
S    1   1.00
      1.0654578038           1.0000000
S    1   1.00
      0.33247346748          1.0000000
P    3   1.00
     22.696633924           -0.45212874436D-01
      4.9872339257          -0.23754317067
      1.3491613954          -0.51287353587
P    1   1.00
      0.34829881977          1.0000000
D    1   1.00
      1.4000000              1.0000000
****
S     0
S    5   1.00
   9184.9303010             -0.22294387756D-02
   1381.5105503             -0.16683029937D-01
    313.87147580            -0.75262436116D-01
     88.053870623           -0.19376827038
     27.039914905           -0.17718020803
S    3   1.00
     45.648731303           -0.10736062573
      4.9664522326           0.65066293018
      2.0116242047           0.59712155354
S    1   1.00
      0.35661077013          1.0000000
S    1   1.00
      0.13507221477          1.0000000
P    5   1.00
    261.98233439            -0.92729929822D-02
     61.306894736           -0.66547669241D-01
     19.103729887           -0.24828595903
      6.6567720378          -0.48703847402
      2.3959635161          -0.39337850312
P    1   1.00
      0.61776161679          1.0000000
P    1   1.00
      0.16993376871          1.0000000
D    1   1.00
      0.5500000              1.0000000
****
Lu     0
S    5   1.00
  95169.767000               0.22000000000D-04
  15488.403000               0.14500000000D-03
   3776.2335000              0.65100000000D-03
   1079.0501000              0.20380000000D-02
    268.95380000             0.51270000000D-02
S    1   1.00
     63.467900000            1.0000000
S    1   1.00
     45.133200000            1.0000000
S    1   1.00
     21.456800000            1.0000000
S    1   1.00
      5.3483000000           1.0000000
S    1   1.00
      2.6778000000           1.0000000
S    1   1.00
      1.0287000000           1.0000000
S    1   1.00
      0.44080000000          1.0000000
S    1   1.00
      0.79100000000D-01      1.0000000
S    1   1.00
      0.31300000000D-01      1.0000000
P    3   1.00
     12.333733920           -0.15313031066
     11.080331415           -0.20300664852
      2.0341747228          -0.19458361263
P    6   1.00
   1500.5317313             -0.10192569555D-02
    382.39748937            -0.59476212135D-02
    132.99969628            -0.16265160929D-01
     46.110032419           -0.35623845839D-01
     15.583529011            0.23709171074
      5.7856677022          -0.30670977844
P    1   1.00
      3.7823361008           1.0000000
P    1   1.00
      1.3682592248           1.0000000
P    1   1.00
      0.57288205601          1.0000000
P    1   1.00
      0.22793165135          1.0000000
P    1   1.00
      0.81403917986D-01      1.0000000
P    1   1.00
      0.29091071778D-01      1.0000000
D    6   1.00
    484.52750000             0.22860000000D-02
    146.66550000             0.18629000000D-01
     56.377900000            0.74088000000D-01
     23.671100000            0.16155400000
      9.4401000000           0.30809100000
      4.3712000000           0.44833400000
D    1   1.00
      1.9580000000           1.0000000
D    1   1.00
      0.72720000000          1.0000000
D    1   1.00
      0.24600000000          1.0000000
D    1   1.00
      0.74400000000D-01      1.0000000
F    5   1.00
    175.15590000             0.41020000000D-02
     62.890900000            0.39086000000D-01
     28.362400000            0.14704400000
     13.247800000            0.27109200000
      6.1440000000           0.34566500000
F    1   1.00
      2.7623000000           1.0000000
F    1   1.00
      1.1574000000           1.0000000
F    1   1.00
      0.42440000000          1.0000000
G    1   1.00
      0.70090000000          1.0000000
****

Lu     0
Lu-ECP     5     28
h potential
  1
2      1.00000000             0.00000000
s-h potential
  1
2     35.16209700           989.99558400
p-h potential
  1
2     19.46440200           278.86565200
d-h potential
  1
2     10.00686500            71.00917800
f-h potential
  1
2     23.51793200           -47.40589000
g-h potential
  1
2     29.41223800           -35.55714600


