%chk=ylide.chk
%mem=616Gb
%nprocshared=24
#P  MN15/gen scf=(maxcyc=500) freq scrf=(smd,solvent=DiChloroEthane)  

Opt

0 1
C                 -1.2207970000     -0.0024170000     -0.0002190000
C                 -1.8661890000     -1.2566820000     -0.0002350000
C                 -1.9499930000      1.2012410000     -0.0003630000
N                 -2.4457110000     -2.2687680000      0.0004070000
N                 -2.5471970000      2.2042880000     -0.0000530000
C                  0.8747030000      1.1978670000      0.0003990000
C                  2.0990330000     -1.1926160000     -0.0000970000
C                  2.2598840000      1.1726450000      0.0001880000
H                  0.2887800000      2.1166960000      0.0004990000
C                  2.9111510000     -0.0544340000     -0.0002320000
H                  2.5231730000     -2.1994000000     -0.0003550000
H                  2.8020500000      2.1188920000      0.0005160000
H                  3.9972920000     -0.1400340000     -0.0006580000
N                  0.1790200000      0.0327630000      0.0001380000
N                  0.7770260000     -1.1525380000     -0.0000130000

H     0
S    3   1.00
     13.0107010              0.19682158D-01
      1.9622572              0.13796524
      0.44453796             0.47831935
S    1   1.00
      0.12194962             1.0000000
P    1   1.00
      0.8000000              1.0000000
****
C     0
S    5   1.00
   1238.4016938              0.54568832082D-02
    186.29004992             0.40638409211D-01
     42.251176346            0.18025593888
     11.676557932            0.46315121755
      3.5930506482           0.44087173314
S    1   1.00
      0.40245147363          1.0000000
S    1   1.00
      0.13090182668          1.0000000
P    3   1.00
      9.4680970621           0.38387871728D-01
      2.0103545142           0.21117025112
      0.54771004707          0.51328172114
P    1   1.00
      0.15268613795          1.0000000
D    1   1.00
      0.8000000              1.0000000
****
N     0
S    5   1.00
   1712.8415853             -0.53934125305D-02
    257.64812677            -0.40221581118D-01
     58.458245853           -0.17931144990
     16.198367905           -0.46376317823
      5.0052600809          -0.44171422662
S    1   1.00
      0.58731856571          1.0000000
S    1   1.00
      0.18764592253          1.0000000
P    3   1.00
     13.571470233           -0.40072398852D-01
      2.9257372874          -0.21807045028
      0.79927750754         -0.51294466049
P    1   1.00
      0.21954348034          1.0000000
D    1   1.00
      1.0000000              1.0000000
****


































































