%chk=i2-keto.chk
%mem=616Gb
%nprocshared=24
#P  UMN15/genecp scf=(maxcyc=500) opt scrf=(smd,solvent=DiChloroEthane)  

Opt

0 2
 C                  1.76826899   -0.58160366   -0.96303489
 C                  1.66779399    0.10894634    0.33353711
 C                  0.56539599   -0.95068966   -1.74705089
 O                 -0.48000001   -0.32590466   -1.62254789
 O                  0.60683799    0.65489834    0.62932711
 O                 -2.79962901   -1.63226666   -0.56932189
 O                 -1.48197400   -0.54713800    2.13935100
 O                 -0.99053101    2.74956534   -0.83228789
 S                 -1.13099101    3.58704134    0.38008411
 S                 -3.34553001   -1.11288766   -1.84501089
 S                 -0.50300800   -1.66138900    2.11965300
 O                 -1.49364601    2.73682734    1.53853311
 O                 -1.87058201    4.82587834    0.22949911
 O                 -3.25112101    0.36494534   -1.88146889
 O                 -2.99053901   -1.83332166   -3.05460189
 O                 -0.24460899   -1.81233534    0.71856789
 O                  0.56603700   -1.56685900    3.11107900
 C                 -1.52035900   -3.06170800    2.73130600
 C                 -5.14962501   -1.39250666   -1.66016189
 C                  0.57620199    4.17963134    0.74560011
 F                 -0.80917000   -4.18461900    2.68224500
 F                 -2.61076100   -3.21307200    1.99853500
 F                 -1.87655500   -2.84013600    3.98918900
 F                 -5.59673201   -0.74753166   -0.58847989
 F                 -5.40342101   -2.68531666   -1.51611289
 F                 -5.79511301   -0.94482466   -2.72748589
 F                  1.40223999    3.19798834    1.07071411
 F                  0.52919699    5.04139434    1.75184611
 F                  1.05809499    4.79889234   -0.32639689
 C                  4.20257899   -0.79497166   -1.66852889
 C                  4.95271299   -2.16393266   -1.41799689
 C                  6.41180199   -2.03765166   -1.55121289
 C                  4.46107299   -3.08196966   -2.46664889
 C                  3.00407999   -3.62994066    1.42333311
 C                  5.15608499   -2.82242366    2.10721911
 C                  3.90095999   -3.37438566    2.44357911
 H                  2.01151899   -4.04568066    1.59628011
 H                  5.91946699   -2.62134766    2.86177111
 H                  3.66162499   -3.59160766    3.48497411
 N                  7.54837299   -1.93041866   -1.73168689
 N                  4.04499499   -3.75658266   -3.30799089
 N                  4.59121399   -2.72541966   -0.07610489
 N                  5.47549599   -2.49155166    0.87262011
 C                  3.39872199   -3.31051466    0.12293211
 H                  2.77786899   -3.51279266   -0.75013589
 H                  4.27545299   -0.64522166   -2.75873389
 C                  4.64509999    0.48423534   -1.00100189
 C                  3.91196999    1.62316034   -1.37862489
 C                  5.67596099    0.60769234   -0.06303889
 C                  4.16784999    2.85684334   -0.78257489
 H                  3.13038899    1.54191534   -2.14239289
 C                  5.94718999    1.85241634    0.51132011
 H                  6.26724399   -0.25286766    0.24792711
 C                  5.18676599    2.97186834    0.16770111
 H                  3.57203599    3.72798734   -1.06428389
 H                  6.75389299    1.94007734    1.24153111
 H                  5.39380699    3.93838834    0.63273411
 Yb                -1.79631901    0.56740934    0.22444211
 O                  2.86366399   -1.20685366   -1.40373589
 C                  0.67127099   -2.10289666   -2.69396189
 H                 -0.32631601   -2.28759766   -3.11476589
 H                  1.39287899   -1.89750566   -3.49135689
 H                  1.04233599   -3.01572266   -2.16858689
 C                  2.76398599    0.07475634    1.35283311
 H                  2.28936299   -0.18129366    2.31014411
 H                  3.56562599   -0.63086166    1.13214811
 H                  3.20662099    1.08251434    1.43415011

H     0
S    3   1.00
     13.0107010              0.19682158D-01
      1.9622572              0.13796524
      0.44453796             0.47831935
S    1   1.00
      0.12194962             1.0000000
P    1   1.00
      0.8000000              1.0000000
****
C     0
S    5   1.00
   1238.4016938              0.54568832082D-02
    186.29004992             0.40638409211D-01
     42.251176346            0.18025593888
     11.676557932            0.46315121755
      3.5930506482           0.44087173314
S    1   1.00
      0.40245147363          1.0000000
S    1   1.00
      0.13090182668          1.0000000
P    3   1.00
      9.4680970621           0.38387871728D-01
      2.0103545142           0.21117025112
      0.54771004707          0.51328172114
P    1   1.00
      0.15268613795          1.0000000
D    1   1.00
      0.8000000              1.0000000
****
N     0
S    5   1.00
   1712.8415853             -0.53934125305D-02
    257.64812677            -0.40221581118D-01
     58.458245853           -0.17931144990
     16.198367905           -0.46376317823
      5.0052600809          -0.44171422662
S    1   1.00
      0.58731856571          1.0000000
S    1   1.00
      0.18764592253          1.0000000
P    3   1.00
     13.571470233           -0.40072398852D-01
      2.9257372874          -0.21807045028
      0.79927750754         -0.51294466049
P    1   1.00
      0.21954348034          1.0000000
D    1   1.00
      1.0000000              1.0000000
****
O     0
S    5   1.00
   2266.1767785             -0.53431809926D-02
    340.87010191            -0.39890039230D-01
     77.363135167           -0.17853911985
     21.479644940           -0.46427684959
      6.6589433124          -0.44309745172
S    1   1.00
      0.80975975668          1.0000000
S    1   1.00
      0.25530772234          1.0000000
P    3   1.00
     17.721504317            0.43394573193D-01
      3.8635505440           0.23094120765
      1.0480920883           0.51375311064
P    1   1.00
      0.27641544411          1.0000000
D    1   1.00
      1.2000000              1.0000000
****
F     0
S    5   1.00
   2894.8325990             -0.53408255515D-02
    435.41939120            -0.39904258866D-01
     98.843328866           -0.17912768038
     27.485198001           -0.46758090825
      8.5405498171          -0.44653131020
S    1   1.00
      1.0654578038           1.0000000
S    1   1.00
      0.33247346748          1.0000000
P    3   1.00
     22.696633924           -0.45212874436D-01
      4.9872339257          -0.23754317067
      1.3491613954          -0.51287353587
P    1   1.00
      0.34829881977          1.0000000
D    1   1.00
      1.4000000              1.0000000
****
S     0
S    5   1.00
   9184.9303010             -0.22294387756D-02
   1381.5105503             -0.16683029937D-01
    313.87147580            -0.75262436116D-01
     88.053870623           -0.19376827038
     27.039914905           -0.17718020803
S    3   1.00
     45.648731303           -0.10736062573
      4.9664522326           0.65066293018
      2.0116242047           0.59712155354
S    1   1.00
      0.35661077013          1.0000000
S    1   1.00
      0.13507221477          1.0000000
P    5   1.00
    261.98233439            -0.92729929822D-02
     61.306894736           -0.66547669241D-01
     19.103729887           -0.24828595903
      6.6567720378          -0.48703847402
      2.3959635161          -0.39337850312
P    1   1.00
      0.61776161679          1.0000000
P    1   1.00
      0.16993376871          1.0000000
D    1   1.00
      0.5500000              1.0000000
****
Yb     0
S    5   1.00
  91972.903000               0.51000000000D-04
  13787.371000               0.38600000000D-03
   3123.6135000              0.18440000000D-02
    871.47540000             0.53560000000D-02
    250.46300000             0.88590000000D-02
S    1   1.00
     58.282700000            1.0000000
S    1   1.00
     41.630500000            1.0000000
S    1   1.00
     20.216400000            1.0000000
S    1   1.00
      4.9972000000           1.0000000
S    1   1.00
      2.4822000000           1.0000000
S    1   1.00
      0.91790000000          1.0000000
S    1   1.00
      0.38530000000          1.0000000
S    1   1.00
      0.61400000000D-01      1.0000000
S    1   1.00
      0.25000000000D-01      1.0000000
P    3   1.00
     12.274108000           -0.15252141000
     10.695631000           -0.20243492000
      2.0359782000          -0.19621046000
P    6   1.00
   1497.5567000             -0.10182934000D-02
    375.04101000            -0.60919401000D-02
    128.69727000            -0.17077693000D-01
     45.270759000           -0.35655508000D-01
     14.906971000            0.23732226000
      5.6450858000          -0.30559689000
P    1   1.00
      3.6752106000           1.0000000
P    1   1.00
      1.3296961000           1.0000000
P    1   1.00
      0.55338966000          1.0000000
P    1   1.00
      0.22382350000          1.0000000
P    1   1.00
      0.68350467650D-01      1.0000000
P    1   1.00
      0.25355670803D-01      1.0000000
D    6   1.00
    469.76060000             0.19840000000D-02
    142.61280000             0.16013000000D-01
     55.126700000            0.63153000000D-01
     23.441500000            0.13780000000
      9.4951000000           0.28549800000
      4.5792000000           0.43830900000
D    1   1.00
      2.1646000000           1.0000000
D    1   1.00
      0.92380000000          1.0000000
D    1   1.00
      0.31070000000          1.0000000
D    1   1.00
      0.91400000000D-01      1.0000000
F    5   1.00
    142.02930000             0.59570000000D-02
     51.086200000            0.53180000000D-01
     22.874100000            0.17807600000
     10.502500000            0.30060000000
      4.7872000000           0.35034200000
F    1   1.00
      2.1088000000           1.0000000
F    1   1.00
      0.86090000000          1.0000000
F    1   1.00
      0.30600000000          1.0000000
G    1   1.00
      0.51330000000          1.0000000
****

Yb     0
Yb-ECP     5     28
h potential
  1
2      1.00000000             0.00000000
s-h potential
  1
2     32.42448400           891.01377700
p-h potential
  1
2     18.65623200           264.03695300
d-h potential
  1
2     10.49022200            73.92391900
f-h potential
  1
2     20.77418300           -39.59217300
g-h potential
  1
2     28.43102800           -34.63863800





























































