%chk=i2-keto.chk
%mem=616Gb
%nprocshared=24
#P  UMN15/genecp scf=(maxcyc=500) opt scrf=(smd,solvent=DiChloroEthane)  

Opt

0 2
 C                 -5.61737600   -0.80393000    0.32487500
 C                 -5.97098600   -1.11671900   -0.99518600
 C                 -7.09734700   -1.90203900   -1.23959200
 C                 -7.87030200   -2.37113700   -0.17421900
 C                 -7.51454000   -2.06135900    1.14073000
 C                 -6.38578400   -1.28109000    1.39319000
 C                 -2.14781600    0.05912000   -0.30755700
 C                 -1.40002800   -0.26649400    0.92489400
 C                 -1.48083800    0.46640800   -1.55630100
 H                 -5.36134300   -0.75739400   -1.82757800
 H                 -7.37013000   -2.15039400   -2.26712800
 H                 -8.75105800   -2.98671900   -0.36958600
 H                 -8.11134400   -2.43556000    1.97487800
 H                 -6.09556000   -1.04740800    2.42089200
 O                 -0.28555500    0.75669800   -1.56534000
 O                 -0.37199000    0.36350100    1.17287400
 O                  1.60090800    2.52490600    0.16418500
 O                  1.57006400   -1.91618900    1.50906600
 O                 -0.20224800   -1.93542600   -0.72655600
 S                  0.49238700   -2.31410000   -1.97460500
 S                  2.06628700    2.90095000   -1.19434400
 S                  2.46170400   -1.29203300    2.51292000
 O                  1.76860100   -1.56850400   -2.10907200
 O                 -0.32866900   -2.40247400   -3.16880400
 O                  2.49133300    1.69825600   -1.94174800
 O                  1.24185200    3.87116700   -1.89647000
 O                  2.76604200    0.10435800    2.11573900
 O                  2.15949700   -1.52779000    3.90962200
 C                  4.05133600   -2.15198600    2.18756500
 C                  3.65646100    3.76651000   -0.88815900
 C                  1.03820800   -4.03410700   -1.63159500
 F                  5.01644300   -1.66856900    2.95358900
 F                  4.38471000   -1.96895000    0.91063100
 F                  3.92835600   -3.45046900    2.41263600
 F                  4.20335800    4.12038500   -2.04087900
 F                  4.48963700    2.95858100   -0.24609700
 F                  3.45606100    4.85063200   -0.15422700
 F                 -0.00309600   -4.75745600   -1.24400500
 F                  1.94980200   -4.04135400   -0.67187500
 F                  1.55651700   -4.57744800   -2.72304500
 C                 -4.41236200    0.05430200    0.60107000
 H                 -3.99840400   -0.14833500    1.60131400
 C                 -4.76669700    1.60539700    0.61499900
 C                 -5.76313100    1.87299200    1.66476000
 C                 -5.29174600    2.00150400   -0.69920900
 C                 -1.46619400    3.36910000    0.33393600
 C                 -2.02356400    2.75424100    2.58670800
 C                 -1.09920200    3.29602900    1.66630700
 H                 -0.79488700    3.75054300   -0.43830600
 H                 -1.79812100    2.67783600    3.65156500
 H                 -0.11366100    3.62447500    2.00099800
 N                 -6.57290600    2.04094800    2.47221800
 N                 -5.69315600    2.26902900   -1.75008100
 N                 -3.51029500    2.35306800    0.93387000
 N                 -3.19144700    2.27235500    2.21344100
 C                 -2.73059100    2.89020300   -0.01637800
 H                 -3.11371700    2.91037500   -1.04168800
 O                 -3.46797200   -0.12693800   -0.43206000
 Yb                 1.68203300    0.00701800   -0.18589000
 C                 -2.31675000    0.48306100   -2.79402800
 H                 -2.64379800   -0.54499000   -3.01537700
 H                 -3.22318000    1.09176800   -2.65562700
 H                 -1.71662500    0.86595500   -3.62599200
 C                 -1.86350900   -1.38183800    1.80765200
 H                 -2.33577500   -0.97194500    2.71597200
 H                 -2.56109400   -2.06271700    1.30167000
 H                 -0.95569000   -1.92021800    2.11755000

H     0
S    3   1.00
     13.0107010              0.19682158D-01
      1.9622572              0.13796524
      0.44453796             0.47831935
S    1   1.00
      0.12194962             1.0000000
P    1   1.00
      0.8000000              1.0000000
****
C     0
S    5   1.00
   1238.4016938              0.54568832082D-02
    186.29004992             0.40638409211D-01
     42.251176346            0.18025593888
     11.676557932            0.46315121755
      3.5930506482           0.44087173314
S    1   1.00
      0.40245147363          1.0000000
S    1   1.00
      0.13090182668          1.0000000
P    3   1.00
      9.4680970621           0.38387871728D-01
      2.0103545142           0.21117025112
      0.54771004707          0.51328172114
P    1   1.00
      0.15268613795          1.0000000
D    1   1.00
      0.8000000              1.0000000
****
N     0
S    5   1.00
   1712.8415853             -0.53934125305D-02
    257.64812677            -0.40221581118D-01
     58.458245853           -0.17931144990
     16.198367905           -0.46376317823
      5.0052600809          -0.44171422662
S    1   1.00
      0.58731856571          1.0000000
S    1   1.00
      0.18764592253          1.0000000
P    3   1.00
     13.571470233           -0.40072398852D-01
      2.9257372874          -0.21807045028
      0.79927750754         -0.51294466049
P    1   1.00
      0.21954348034          1.0000000
D    1   1.00
      1.0000000              1.0000000
****
O     0
S    5   1.00
   2266.1767785             -0.53431809926D-02
    340.87010191            -0.39890039230D-01
     77.363135167           -0.17853911985
     21.479644940           -0.46427684959
      6.6589433124          -0.44309745172
S    1   1.00
      0.80975975668          1.0000000
S    1   1.00
      0.25530772234          1.0000000
P    3   1.00
     17.721504317            0.43394573193D-01
      3.8635505440           0.23094120765
      1.0480920883           0.51375311064
P    1   1.00
      0.27641544411          1.0000000
D    1   1.00
      1.2000000              1.0000000
****
F     0
S    5   1.00
   2894.8325990             -0.53408255515D-02
    435.41939120            -0.39904258866D-01
     98.843328866           -0.17912768038
     27.485198001           -0.46758090825
      8.5405498171          -0.44653131020
S    1   1.00
      1.0654578038           1.0000000
S    1   1.00
      0.33247346748          1.0000000
P    3   1.00
     22.696633924           -0.45212874436D-01
      4.9872339257          -0.23754317067
      1.3491613954          -0.51287353587
P    1   1.00
      0.34829881977          1.0000000
D    1   1.00
      1.4000000              1.0000000
****
S     0
S    5   1.00
   9184.9303010             -0.22294387756D-02
   1381.5105503             -0.16683029937D-01
    313.87147580            -0.75262436116D-01
     88.053870623           -0.19376827038
     27.039914905           -0.17718020803
S    3   1.00
     45.648731303           -0.10736062573
      4.9664522326           0.65066293018
      2.0116242047           0.59712155354
S    1   1.00
      0.35661077013          1.0000000
S    1   1.00
      0.13507221477          1.0000000
P    5   1.00
    261.98233439            -0.92729929822D-02
     61.306894736           -0.66547669241D-01
     19.103729887           -0.24828595903
      6.6567720378          -0.48703847402
      2.3959635161          -0.39337850312
P    1   1.00
      0.61776161679          1.0000000
P    1   1.00
      0.16993376871          1.0000000
D    1   1.00
      0.5500000              1.0000000
****
Yb     0
S    5   1.00
  91972.903000               0.51000000000D-04
  13787.371000               0.38600000000D-03
   3123.6135000              0.18440000000D-02
    871.47540000             0.53560000000D-02
    250.46300000             0.88590000000D-02
S    1   1.00
     58.282700000            1.0000000
S    1   1.00
     41.630500000            1.0000000
S    1   1.00
     20.216400000            1.0000000
S    1   1.00
      4.9972000000           1.0000000
S    1   1.00
      2.4822000000           1.0000000
S    1   1.00
      0.91790000000          1.0000000
S    1   1.00
      0.38530000000          1.0000000
S    1   1.00
      0.61400000000D-01      1.0000000
S    1   1.00
      0.25000000000D-01      1.0000000
P    3   1.00
     12.274108000           -0.15252141000
     10.695631000           -0.20243492000
      2.0359782000          -0.19621046000
P    6   1.00
   1497.5567000             -0.10182934000D-02
    375.04101000            -0.60919401000D-02
    128.69727000            -0.17077693000D-01
     45.270759000           -0.35655508000D-01
     14.906971000            0.23732226000
      5.6450858000          -0.30559689000
P    1   1.00
      3.6752106000           1.0000000
P    1   1.00
      1.3296961000           1.0000000
P    1   1.00
      0.55338966000          1.0000000
P    1   1.00
      0.22382350000          1.0000000
P    1   1.00
      0.68350467650D-01      1.0000000
P    1   1.00
      0.25355670803D-01      1.0000000
D    6   1.00
    469.76060000             0.19840000000D-02
    142.61280000             0.16013000000D-01
     55.126700000            0.63153000000D-01
     23.441500000            0.13780000000
      9.4951000000           0.28549800000
      4.5792000000           0.43830900000
D    1   1.00
      2.1646000000           1.0000000
D    1   1.00
      0.92380000000          1.0000000
D    1   1.00
      0.31070000000          1.0000000
D    1   1.00
      0.91400000000D-01      1.0000000
F    5   1.00
    142.02930000             0.59570000000D-02
     51.086200000            0.53180000000D-01
     22.874100000            0.17807600000
     10.502500000            0.30060000000
      4.7872000000           0.35034200000
F    1   1.00
      2.1088000000           1.0000000
F    1   1.00
      0.86090000000          1.0000000
F    1   1.00
      0.30600000000          1.0000000
G    1   1.00
      0.51330000000          1.0000000
****

Yb     0
Yb-ECP     5     28
h potential
  1
2      1.00000000             0.00000000
s-h potential
  1
2     32.42448400           891.01377700
p-h potential
  1
2     18.65623200           264.03695300
d-h potential
  1
2     10.49022200            73.92391900
f-h potential
  1
2     20.77418300           -39.59217300
g-h potential
  1
2     28.43102800           -34.63863800





























































