%chk=i2.chk
%mem=616Gb
%nprocshared=24
#P  UMN15/genecp scf=(maxcyc=500) freq scrf=(smd,solvent=DiChloroEthane)  

Opt

0 2
C                 -4.9707010000      1.6677070000      0.6811300000
C                 -5.8414880000      2.5010960000     -0.0319690000
C                 -6.5198750000      3.5226530000      0.6325470000
C                 -6.3186130000      3.7194050000      2.0014230000
C                 -5.4397850000      2.8948890000      2.7085480000
C                 -4.7656160000      1.8637170000      2.0531570000
C                 -1.9004920000      0.7059420000      0.5712580000
C                 -1.2997030000      1.2274250000     -0.6684200000
C                 -1.0708990000      0.5020220000      1.7726270000
H                 -5.9818410000      2.3502820000     -1.1059050000
H                 -7.1985800000      4.1735950000      0.0777900000
H                 -6.8441970000      4.5251800000      2.5184470000
H                 -5.2762520000      3.0549570000      3.7761320000
H                 -4.0731300000      1.2183060000      2.6001610000
O                  0.1068520000      0.8249390000      1.8507670000
O                 -0.1878990000      1.7328390000     -0.7170510000
O                 -2.0559330000      1.0527980000     -1.7339140000
O                 -1.7212460000     -0.0786920000      2.7574780000
C                 -1.4890350000      1.4366260000     -2.9932320000
C                 -0.9526310000     -0.3708240000      3.9305830000
H                 -2.2196250000      1.1492600000     -3.7561840000
H                 -0.5405120000      0.9076500000     -3.1558340000
H                 -1.3156610000      2.5208180000     -3.0140960000
H                 -1.6072080000     -0.9480430000      4.5909270000
H                 -0.6419180000      0.5624300000      4.4197690000
H                 -0.0594040000     -0.9527440000      3.6626380000
O                  1.7435740000     -1.6934660000      1.3405280000
O                  1.6993560000     -0.7140540000     -1.9738510000
O                  2.5395500000      2.8836730000      0.6001140000
S                  3.7552990000      2.8500560000     -0.2500180000
S                  2.8169100000     -1.3863790000      2.3181730000
S                  0.4886340000     -1.5608220000     -1.8523550000
O                  4.0186780000      1.4555810000     -0.6831650000
O                  4.8881060000      3.6401200000      0.1787340000
O                  3.1875920000      0.0452260000      2.2169600000
O                  2.6664630000     -1.9424340000      3.6479440000
O                 -0.2857600000     -1.2203530000     -0.6419040000
O                 -0.2860540000     -1.7200880000     -3.0771250000
C                  1.1642290000     -3.2639900000     -1.5073040000
C                  4.2673630000     -2.2284320000      1.5709130000
C                  3.1608380000      3.6158380000     -1.8093670000
F                  0.4224460000     -3.8599220000     -0.5855540000
F                  2.4141360000     -3.2026830000     -1.0924140000
F                  1.1142840000     -3.9838670000     -2.6189030000
F                  4.4851470000     -1.7129920000      0.3653840000
F                  4.0331470000     -3.5255890000      1.4475690000
F                  5.3457460000     -2.0508830000      2.3165750000
F                  2.1660000000      2.8738080000     -2.2909310000
F                  4.1330050000      3.6624420000     -2.7059050000
F                  2.7130580000      4.8421420000     -1.5913150000
C                 -4.2709810000      0.5508360000     -0.0454350000
H                 -4.0822600000      0.8133950000     -1.0947860000
C                 -5.0856310000     -0.7929790000     -0.0887670000
C                 -6.3061970000     -0.6273600000     -0.8948450000
C                 -5.4334440000     -1.2072450000      1.2794200000
C                 -2.6739690000     -3.5906670000     -0.7553840000
C                 -3.1764740000     -2.2837280000     -2.7000900000
C                 -2.4732000000     -3.3524450000     -2.0994060000
H                 -2.1625350000     -4.3852550000     -0.2128040000
H                 -3.0472830000     -2.0333580000     -3.7544710000
H                 -1.7853860000     -3.9535630000     -2.6958910000
N                 -7.2685770000     -0.4659880000     -1.5139530000
N                 -5.7013940000     -1.4866760000      2.3686470000
N                 -4.1990240000     -1.7998650000     -0.7490370000
N                 -4.0232290000     -1.5342800000     -2.0308490000
C                 -3.5687420000     -2.7632430000     -0.0730260000
H                 -3.7843700000     -2.8678910000      0.9922660000
Yb                 1.8371650000      0.5359770000      0.1522680000
O                 -3.0959980000      0.1292860000      0.6232210000

H     0
S    3   1.00
     13.0107010              0.19682158D-01
      1.9622572              0.13796524
      0.44453796             0.47831935
S    1   1.00
      0.12194962             1.0000000
P    1   1.00
      0.8000000              1.0000000
****
C     0
S    5   1.00
   1238.4016938              0.54568832082D-02
    186.29004992             0.40638409211D-01
     42.251176346            0.18025593888
     11.676557932            0.46315121755
      3.5930506482           0.44087173314
S    1   1.00
      0.40245147363          1.0000000
S    1   1.00
      0.13090182668          1.0000000
P    3   1.00
      9.4680970621           0.38387871728D-01
      2.0103545142           0.21117025112
      0.54771004707          0.51328172114
P    1   1.00
      0.15268613795          1.0000000
D    1   1.00
      0.8000000              1.0000000
****
N     0
S    5   1.00
   1712.8415853             -0.53934125305D-02
    257.64812677            -0.40221581118D-01
     58.458245853           -0.17931144990
     16.198367905           -0.46376317823
      5.0052600809          -0.44171422662
S    1   1.00
      0.58731856571          1.0000000
S    1   1.00
      0.18764592253          1.0000000
P    3   1.00
     13.571470233           -0.40072398852D-01
      2.9257372874          -0.21807045028
      0.79927750754         -0.51294466049
P    1   1.00
      0.21954348034          1.0000000
D    1   1.00
      1.0000000              1.0000000
****
O     0
S    5   1.00
   2266.1767785             -0.53431809926D-02
    340.87010191            -0.39890039230D-01
     77.363135167           -0.17853911985
     21.479644940           -0.46427684959
      6.6589433124          -0.44309745172
S    1   1.00
      0.80975975668          1.0000000
S    1   1.00
      0.25530772234          1.0000000
P    3   1.00
     17.721504317            0.43394573193D-01
      3.8635505440           0.23094120765
      1.0480920883           0.51375311064
P    1   1.00
      0.27641544411          1.0000000
D    1   1.00
      1.2000000              1.0000000
****
F     0
S    5   1.00
   2894.8325990             -0.53408255515D-02
    435.41939120            -0.39904258866D-01
     98.843328866           -0.17912768038
     27.485198001           -0.46758090825
      8.5405498171          -0.44653131020
S    1   1.00
      1.0654578038           1.0000000
S    1   1.00
      0.33247346748          1.0000000
P    3   1.00
     22.696633924           -0.45212874436D-01
      4.9872339257          -0.23754317067
      1.3491613954          -0.51287353587
P    1   1.00
      0.34829881977          1.0000000
D    1   1.00
      1.4000000              1.0000000
****
S     0
S    5   1.00
   9184.9303010             -0.22294387756D-02
   1381.5105503             -0.16683029937D-01
    313.87147580            -0.75262436116D-01
     88.053870623           -0.19376827038
     27.039914905           -0.17718020803
S    3   1.00
     45.648731303           -0.10736062573
      4.9664522326           0.65066293018
      2.0116242047           0.59712155354
S    1   1.00
      0.35661077013          1.0000000
S    1   1.00
      0.13507221477          1.0000000
P    5   1.00
    261.98233439            -0.92729929822D-02
     61.306894736           -0.66547669241D-01
     19.103729887           -0.24828595903
      6.6567720378          -0.48703847402
      2.3959635161          -0.39337850312
P    1   1.00
      0.61776161679          1.0000000
P    1   1.00
      0.16993376871          1.0000000
D    1   1.00
      0.5500000              1.0000000
****
Yb     0
S    5   1.00
  91972.903000               0.51000000000D-04
  13787.371000               0.38600000000D-03
   3123.6135000              0.18440000000D-02
    871.47540000             0.53560000000D-02
    250.46300000             0.88590000000D-02
S    1   1.00
     58.282700000            1.0000000
S    1   1.00
     41.630500000            1.0000000
S    1   1.00
     20.216400000            1.0000000
S    1   1.00
      4.9972000000           1.0000000
S    1   1.00
      2.4822000000           1.0000000
S    1   1.00
      0.91790000000          1.0000000
S    1   1.00
      0.38530000000          1.0000000
S    1   1.00
      0.61400000000D-01      1.0000000
S    1   1.00
      0.25000000000D-01      1.0000000
P    3   1.00
     12.274108000           -0.15252141000
     10.695631000           -0.20243492000
      2.0359782000          -0.19621046000
P    6   1.00
   1497.5567000             -0.10182934000D-02
    375.04101000            -0.60919401000D-02
    128.69727000            -0.17077693000D-01
     45.270759000           -0.35655508000D-01
     14.906971000            0.23732226000
      5.6450858000          -0.30559689000
P    1   1.00
      3.6752106000           1.0000000
P    1   1.00
      1.3296961000           1.0000000
P    1   1.00
      0.55338966000          1.0000000
P    1   1.00
      0.22382350000          1.0000000
P    1   1.00
      0.68350467650D-01      1.0000000
P    1   1.00
      0.25355670803D-01      1.0000000
D    6   1.00
    469.76060000             0.19840000000D-02
    142.61280000             0.16013000000D-01
     55.126700000            0.63153000000D-01
     23.441500000            0.13780000000
      9.4951000000           0.28549800000
      4.5792000000           0.43830900000
D    1   1.00
      2.1646000000           1.0000000
D    1   1.00
      0.92380000000          1.0000000
D    1   1.00
      0.31070000000          1.0000000
D    1   1.00
      0.91400000000D-01      1.0000000
F    5   1.00
    142.02930000             0.59570000000D-02
     51.086200000            0.53180000000D-01
     22.874100000            0.17807600000
     10.502500000            0.30060000000
      4.7872000000           0.35034200000
F    1   1.00
      2.1088000000           1.0000000
F    1   1.00
      0.86090000000          1.0000000
F    1   1.00
      0.30600000000          1.0000000
G    1   1.00
      0.51330000000          1.0000000
****

Yb     0
Yb-ECP     5     28
h potential
  1
2      1.00000000             0.00000000
s-h potential
  1
2     32.42448400           891.01377700
p-h potential
  1
2     18.65623200           264.03695300
d-h potential
  1
2     10.49022200            73.92391900
f-h potential
  1
2     20.77418300           -39.59217300
g-h potential
  1
2     28.43102800           -34.63863800





























































