%chk=i3-minor.chk
%mem=92Gb
%nprocshared=24
#P UMN15/genecp scf=(maxcyc=500) opt=modred scrf=(smd,solvent=DiChloroEthane)  

Opt

0 1
 C                  1.94036800    0.02065300   -1.07278300
 C                  1.59566800   -0.03139100    0.32091700
 C                  0.89323900   -0.07078300   -2.06059400
 O                 -0.30948900   -0.33240500   -1.82386700
 O                  0.43293500   -0.11560900    0.76600900
 O                  2.61739500   -0.15531500    1.13669300
 O                  1.31759300    0.01837400   -3.30034700
 C                  2.40002500   -0.31907800    2.53917100
 C                  0.34997300   -0.11545000   -4.34477500
 H                  3.31583800   -0.77184100    2.93792700
 H                  1.53394700   -0.97094000    2.71988500
 H                  2.23841100    0.65995200    3.01022800
 H                  0.89683100    0.01858500   -5.28354700
 H                 -0.42774700    0.65362700   -4.24355900
 H                 -0.11343800   -1.11068500   -4.31325000
 O                 -3.38878000   -0.88779300   -1.16035500
 O                 -2.04075500   -0.80610700    1.96387400
 O                 -0.39944500    2.18649800   -0.74296000
 S                 -0.99946500    3.02117400    0.33233000
 S                 -4.01939100    0.33236200   -1.75526600
 S                 -1.60723300   -2.20302200    1.64311600
 O                 -1.77098900    2.07298700    1.20158300
 O                 -1.64512800    4.25434100   -0.03797900
 O                 -3.07174200    1.44391000   -1.43922600
 O                 -4.54595500    0.24047600   -3.08978100
 O                 -1.33965700   -2.22835700    0.17966700
 O                 -0.62523500   -2.81586600    2.50874700
 C                 -3.14495200   -3.19126600    1.85237500
 C                 -5.44143600    0.64608000   -0.63037700
 C                  0.43522600    3.53373200    1.36890900
 F                 -2.93743900   -4.40978700    1.38755300
 F                 -4.13157000   -2.62305500    1.18624200
 F                 -3.45143600   -3.25147900    3.13466200
 F                 -4.98721600    0.71104800    0.61428900
 F                 -6.30860100   -0.34133100   -0.73102100
 F                 -6.01879300    1.78639400   -0.94956300
 F                  1.05613000    2.47201600    1.85577300
 F                  0.01203100    4.28947700    2.36265100
 F                  1.27737200    4.22088800    0.61539900
 C                  4.44724200    0.38438800   -1.21311100
 C                  4.78895500   -1.11353200   -1.50611800
 C                  6.19676800   -1.47901100   -1.26395000
 C                  4.54019300   -1.31333900   -2.95353800
 C                  1.73077400   -2.90518200   -0.32976200
 C                  3.57630400   -3.10651800    1.20265900
 C                  2.20826400   -3.36127600    0.86572300
 H                  0.70759000   -3.08669100   -0.66214900
 H                  4.01286300   -3.47689600    2.13243600
 H                  1.57529000   -3.93034600    1.54768800
 N                  7.31015600   -1.73792500   -1.15112100
 N                  4.36257000   -1.44369700   -4.08016700
 N                  3.88046300   -1.99289000   -0.73601500
 N                  4.37239400   -2.42854400    0.42667700
 C                  2.59559400   -2.12854100   -1.15294100
 H                  2.41542400   -2.01069100   -2.22341800
 H                  5.00794900    0.93785800   -1.98410900
 C                  4.80139100    1.00932200    0.12777200
 C                  4.18593600    2.24538200    0.38364000
 C                  5.65501900    0.46230100    1.08888300
 C                  4.39771200    2.90827700    1.58967900
 H                  3.50814100    2.67151400   -0.36037700
 C                  5.87157100    1.13457700    2.29724200
 H                  6.14567700   -0.49859400    0.93831600
 C                  5.24093600    2.35078600    2.55657000
 H                  3.89474700    3.85974900    1.77724900
 H                  6.53583600    0.69110400    3.04234900
 H                  5.40627400    2.86503900    3.50589000
 Lu                -1.59073300    0.16267000   -0.10086000
 O                  3.09973100    0.58918600   -1.58661100

1 54 S 6 +0.1

H     0
S    3   1.00
     13.0107010              0.19682158D-01
      1.9622572              0.13796524
      0.44453796             0.47831935
S    1   1.00
      0.12194962             1.0000000
P    1   1.00
      0.8000000              1.0000000
****
C     0
S    5   1.00
   1238.4016938              0.54568832082D-02
    186.29004992             0.40638409211D-01
     42.251176346            0.18025593888
     11.676557932            0.46315121755
      3.5930506482           0.44087173314
S    1   1.00
      0.40245147363          1.0000000
S    1   1.00
      0.13090182668          1.0000000
P    3   1.00
      9.4680970621           0.38387871728D-01
      2.0103545142           0.21117025112
      0.54771004707          0.51328172114
P    1   1.00
      0.15268613795          1.0000000
D    1   1.00
      0.8000000              1.0000000
****
N     0
S    5   1.00
   1712.8415853             -0.53934125305D-02
    257.64812677            -0.40221581118D-01
     58.458245853           -0.17931144990
     16.198367905           -0.46376317823
      5.0052600809          -0.44171422662
S    1   1.00
      0.58731856571          1.0000000
S    1   1.00
      0.18764592253          1.0000000
P    3   1.00
     13.571470233           -0.40072398852D-01
      2.9257372874          -0.21807045028
      0.79927750754         -0.51294466049
P    1   1.00
      0.21954348034          1.0000000
D    1   1.00
      1.0000000              1.0000000
****
O     0
S    5   1.00
   2266.1767785             -0.53431809926D-02
    340.87010191            -0.39890039230D-01
     77.363135167           -0.17853911985
     21.479644940           -0.46427684959
      6.6589433124          -0.44309745172
S    1   1.00
      0.80975975668          1.0000000
S    1   1.00
      0.25530772234          1.0000000
P    3   1.00
     17.721504317            0.43394573193D-01
      3.8635505440           0.23094120765
      1.0480920883           0.51375311064
P    1   1.00
      0.27641544411          1.0000000
D    1   1.00
      1.2000000              1.0000000
****
F     0
S    5   1.00
   2894.8325990             -0.53408255515D-02
    435.41939120            -0.39904258866D-01
     98.843328866           -0.17912768038
     27.485198001           -0.46758090825
      8.5405498171          -0.44653131020
S    1   1.00
      1.0654578038           1.0000000
S    1   1.00
      0.33247346748          1.0000000
P    3   1.00
     22.696633924           -0.45212874436D-01
      4.9872339257          -0.23754317067
      1.3491613954          -0.51287353587
P    1   1.00
      0.34829881977          1.0000000
D    1   1.00
      1.4000000              1.0000000
****
S     0
S    5   1.00
   9184.9303010             -0.22294387756D-02
   1381.5105503             -0.16683029937D-01
    313.87147580            -0.75262436116D-01
     88.053870623           -0.19376827038
     27.039914905           -0.17718020803
S    3   1.00
     45.648731303           -0.10736062573
      4.9664522326           0.65066293018
      2.0116242047           0.59712155354
S    1   1.00
      0.35661077013          1.0000000
S    1   1.00
      0.13507221477          1.0000000
P    5   1.00
    261.98233439            -0.92729929822D-02
     61.306894736           -0.66547669241D-01
     19.103729887           -0.24828595903
      6.6567720378          -0.48703847402
      2.3959635161          -0.39337850312
P    1   1.00
      0.61776161679          1.0000000
P    1   1.00
      0.16993376871          1.0000000
D    1   1.00
      0.5500000              1.0000000
****
Lu     0
S    5   1.00
  95169.767000               0.22000000000D-04
  15488.403000               0.14500000000D-03
   3776.2335000              0.65100000000D-03
   1079.0501000              0.20380000000D-02
    268.95380000             0.51270000000D-02
S    1   1.00
     63.467900000            1.0000000
S    1   1.00
     45.133200000            1.0000000
S    1   1.00
     21.456800000            1.0000000
S    1   1.00
      5.3483000000           1.0000000
S    1   1.00
      2.6778000000           1.0000000
S    1   1.00
      1.0287000000           1.0000000
S    1   1.00
      0.44080000000          1.0000000
S    1   1.00
      0.79100000000D-01      1.0000000
S    1   1.00
      0.31300000000D-01      1.0000000
P    3   1.00
     12.333733920           -0.15313031066
     11.080331415           -0.20300664852
      2.0341747228          -0.19458361263
P    6   1.00
   1500.5317313             -0.10192569555D-02
    382.39748937            -0.59476212135D-02
    132.99969628            -0.16265160929D-01
     46.110032419           -0.35623845839D-01
     15.583529011            0.23709171074
      5.7856677022          -0.30670977844
P    1   1.00
      3.7823361008           1.0000000
P    1   1.00
      1.3682592248           1.0000000
P    1   1.00
      0.57288205601          1.0000000
P    1   1.00
      0.22793165135          1.0000000
P    1   1.00
      0.81403917986D-01      1.0000000
P    1   1.00
      0.29091071778D-01      1.0000000
D    6   1.00
    484.52750000             0.22860000000D-02
    146.66550000             0.18629000000D-01
     56.377900000            0.74088000000D-01
     23.671100000            0.16155400000
      9.4401000000           0.30809100000
      4.3712000000           0.44833400000
D    1   1.00
      1.9580000000           1.0000000
D    1   1.00
      0.72720000000          1.0000000
D    1   1.00
      0.24600000000          1.0000000
D    1   1.00
      0.74400000000D-01      1.0000000
F    5   1.00
    175.15590000             0.41020000000D-02
     62.890900000            0.39086000000D-01
     28.362400000            0.14704400000
     13.247800000            0.27109200000
      6.1440000000           0.34566500000
F    1   1.00
      2.7623000000           1.0000000
F    1   1.00
      1.1574000000           1.0000000
F    1   1.00
      0.42440000000          1.0000000
G    1   1.00
      0.70090000000          1.0000000
****

Lu     0
Lu-ECP     5     28
h potential
  1
2      1.00000000             0.00000000
s-h potential
  1
2     35.16209700           989.99558400
p-h potential
  1
2     19.46440200           278.86565200
d-h potential
  1
2     10.00686500            71.00917800
f-h potential
  1
2     23.51793200           -47.40589000
g-h potential
  1
2     29.41223800           -35.55714600




