%chk=ts-major.chk
%mem=616Gb
%nprocshared=24
# irc=(maxpoints=100,recorrect=never,calcfc,maxcycles=500,nogradstop) UMN15/genecp scrf=(smd,solvent=DiChloroEthane)  

IRC for Going from i2 to i3, where we are forming bond 7-56

0 2
C                 -5.4822840000     -0.8444910000      0.2992750000
C                 -5.8118570000     -1.1508120000     -1.0277280000
C                 -6.9350690000     -1.9343440000     -1.2933700000
C                 -7.7277500000     -2.4049120000     -0.2431850000
C                 -7.3957400000     -2.0999400000      1.0792230000
C                 -6.2704230000     -1.3228690000      1.3531510000
C                 -2.0713700000      0.3681720000     -0.2554020000
C                 -1.2364090000     -0.1184630000      0.9154210000
C                 -1.3427350000      0.4777990000     -1.5862750000
H                 -5.1872630000     -0.7870670000     -1.8472250000
H                 -7.1903530000     -2.1795340000     -2.3261670000
H                 -8.6060790000     -3.0178630000     -0.4568780000
H                 -8.0093050000     -2.4743830000      1.9009500000
H                 -5.9976260000     -1.0887440000      2.3856170000
O                 -0.1764830000      0.8311610000     -1.5968170000
O                 -0.1966260000      0.4736060000      1.1586080000
O                  1.8203530000      2.5044570000      0.1518650000
O                  1.7186010000     -1.9005430000      1.4887220000
O                 -0.1031560000     -1.8503500000     -0.7759000000
S                  0.6211000000     -2.2870980000     -1.9918490000
S                  2.2601340000      2.8814560000     -1.2157820000
S                  2.6170390000     -1.2930660000      2.4998360000
O                  1.9099000000     -1.5612740000     -2.1133920000
O                 -0.1705670000     -2.4045510000     -3.2022670000
O                  2.6728510000      1.6758290000     -1.9662600000
O                  1.4112160000      3.8387470000     -1.9049570000
O                  2.9387710000      0.0996590000      2.1039330000
O                  2.3048120000     -1.5304870000      3.8931250000
C                  4.1995560000     -2.1661640000      2.1753370000
C                  3.8444690000      3.7599100000     -0.9230700000
C                  1.1483230000     -4.0049110000     -1.6017410000
F                  5.1648430000     -1.6865750000      2.9428530000
F                  4.5341450000     -1.9828610000      0.8988650000
F                  4.0691880000     -3.4633330000      2.3999420000
F                  4.3845740000      4.1176910000     -2.0767930000
F                  4.6839410000      2.9589200000     -0.2815230000
F                  3.6326240000      4.8411760000     -0.1889050000
F                  0.1016150000     -4.7142420000     -1.2065530000
F                  2.0588620000     -4.0034010000     -0.6425060000
F                  1.6649670000     -4.5648860000     -2.6853300000
C                 -4.2981250000      0.0233680000      0.6118560000
H                 -3.8927020000     -0.1940990000      1.6143530000
C                 -4.6509790000      1.5707360000      0.6553050000
C                 -5.6559080000      1.8372270000      1.6947520000
C                 -5.1470820000      1.9859710000     -0.6681810000
C                 -1.1938280000      2.9766070000      0.3538980000
C                 -1.9832660000      2.9192570000      2.6158430000
C                 -0.9741810000      3.2609510000      1.6768300000
H                 -0.4582520000      3.1928910000     -0.4223010000
H                 -1.8394520000      3.0627760000      3.6886440000
H                 -0.0437450000      3.7229880000      2.0086230000
N                 -6.4840230000      2.0018520000      2.4838440000
N                 -5.5200420000      2.2530530000     -1.7296090000
N                 -3.3893560000      2.2639940000      0.9756500000
N                 -3.1538760000      2.4291360000      2.2616000000
C                 -2.4164070000      2.3312240000     -0.0063110000
H                 -2.8039190000      2.4517920000     -1.0244230000
O                 -3.3254070000     -0.1064190000     -0.4051940000
Yb                 1.8628860000      0.0042480000     -0.1969800000
C                 -2.1527690000      0.1974280000     -2.8033260000
H                 -2.5120470000     -0.8424310000     -2.7613600000
H                 -3.0411810000      0.8530340000     -2.8207640000
H                 -1.5363780000      0.3525470000     -3.6953040000
C                 -1.6608870000     -1.3321740000      1.6747390000
H                 -2.1250370000     -1.0156520000      2.6244930000
H                 -2.3585640000     -1.9674800000      1.1151720000
H                 -0.7400850000     -1.8815500000      1.9151080000

H     0
S    3   1.00
     13.0107010              0.19682158D-01
      1.9622572              0.13796524
      0.44453796             0.47831935
S    1   1.00
      0.12194962             1.0000000
P    1   1.00
      0.8000000              1.0000000
****
C     0
S    5   1.00
   1238.4016938              0.54568832082D-02
    186.29004992             0.40638409211D-01
     42.251176346            0.18025593888
     11.676557932            0.46315121755
      3.5930506482           0.44087173314
S    1   1.00
      0.40245147363          1.0000000
S    1   1.00
      0.13090182668          1.0000000
P    3   1.00
      9.4680970621           0.38387871728D-01
      2.0103545142           0.21117025112
      0.54771004707          0.51328172114
P    1   1.00
      0.15268613795          1.0000000
D    1   1.00
      0.8000000              1.0000000
****
N     0
S    5   1.00
   1712.8415853             -0.53934125305D-02
    257.64812677            -0.40221581118D-01
     58.458245853           -0.17931144990
     16.198367905           -0.46376317823
      5.0052600809          -0.44171422662
S    1   1.00
      0.58731856571          1.0000000
S    1   1.00
      0.18764592253          1.0000000
P    3   1.00
     13.571470233           -0.40072398852D-01
      2.9257372874          -0.21807045028
      0.79927750754         -0.51294466049
P    1   1.00
      0.21954348034          1.0000000
D    1   1.00
      1.0000000              1.0000000
****
O     0
S    5   1.00
   2266.1767785             -0.53431809926D-02
    340.87010191            -0.39890039230D-01
     77.363135167           -0.17853911985
     21.479644940           -0.46427684959
      6.6589433124          -0.44309745172
S    1   1.00
      0.80975975668          1.0000000
S    1   1.00
      0.25530772234          1.0000000
P    3   1.00
     17.721504317            0.43394573193D-01
      3.8635505440           0.23094120765
      1.0480920883           0.51375311064
P    1   1.00
      0.27641544411          1.0000000
D    1   1.00
      1.2000000              1.0000000
****
F     0
S    5   1.00
   2894.8325990             -0.53408255515D-02
    435.41939120            -0.39904258866D-01
     98.843328866           -0.17912768038
     27.485198001           -0.46758090825
      8.5405498171          -0.44653131020
S    1   1.00
      1.0654578038           1.0000000
S    1   1.00
      0.33247346748          1.0000000
P    3   1.00
     22.696633924           -0.45212874436D-01
      4.9872339257          -0.23754317067
      1.3491613954          -0.51287353587
P    1   1.00
      0.34829881977          1.0000000
D    1   1.00
      1.4000000              1.0000000
****
S     0
S    5   1.00
   9184.9303010             -0.22294387756D-02
   1381.5105503             -0.16683029937D-01
    313.87147580            -0.75262436116D-01
     88.053870623           -0.19376827038
     27.039914905           -0.17718020803
S    3   1.00
     45.648731303           -0.10736062573
      4.9664522326           0.65066293018
      2.0116242047           0.59712155354
S    1   1.00
      0.35661077013          1.0000000
S    1   1.00
      0.13507221477          1.0000000
P    5   1.00
    261.98233439            -0.92729929822D-02
     61.306894736           -0.66547669241D-01
     19.103729887           -0.24828595903
      6.6567720378          -0.48703847402
      2.3959635161          -0.39337850312
P    1   1.00
      0.61776161679          1.0000000
P    1   1.00
      0.16993376871          1.0000000
D    1   1.00
      0.5500000              1.0000000
****
Yb     0
S    5   1.00
  91972.903000               0.51000000000D-04
  13787.371000               0.38600000000D-03
   3123.6135000              0.18440000000D-02
    871.47540000             0.53560000000D-02
    250.46300000             0.88590000000D-02
S    1   1.00
     58.282700000            1.0000000
S    1   1.00
     41.630500000            1.0000000
S    1   1.00
     20.216400000            1.0000000
S    1   1.00
      4.9972000000           1.0000000
S    1   1.00
      2.4822000000           1.0000000
S    1   1.00
      0.91790000000          1.0000000
S    1   1.00
      0.38530000000          1.0000000
S    1   1.00
      0.61400000000D-01      1.0000000
S    1   1.00
      0.25000000000D-01      1.0000000
P    3   1.00
     12.274108000           -0.15252141000
     10.695631000           -0.20243492000
      2.0359782000          -0.19621046000
P    6   1.00
   1497.5567000             -0.10182934000D-02
    375.04101000            -0.60919401000D-02
    128.69727000            -0.17077693000D-01
     45.270759000           -0.35655508000D-01
     14.906971000            0.23732226000
      5.6450858000          -0.30559689000
P    1   1.00
      3.6752106000           1.0000000
P    1   1.00
      1.3296961000           1.0000000
P    1   1.00
      0.55338966000          1.0000000
P    1   1.00
      0.22382350000          1.0000000
P    1   1.00
      0.68350467650D-01      1.0000000
P    1   1.00
      0.25355670803D-01      1.0000000
D    6   1.00
    469.76060000             0.19840000000D-02
    142.61280000             0.16013000000D-01
     55.126700000            0.63153000000D-01
     23.441500000            0.13780000000
      9.4951000000           0.28549800000
      4.5792000000           0.43830900000
D    1   1.00
      2.1646000000           1.0000000
D    1   1.00
      0.92380000000          1.0000000
D    1   1.00
      0.31070000000          1.0000000
D    1   1.00
      0.91400000000D-01      1.0000000
F    5   1.00
    142.02930000             0.59570000000D-02
     51.086200000            0.53180000000D-01
     22.874100000            0.17807600000
     10.502500000            0.30060000000
      4.7872000000           0.35034200000
F    1   1.00
      2.1088000000           1.0000000
F    1   1.00
      0.86090000000          1.0000000
F    1   1.00
      0.30600000000          1.0000000
G    1   1.00
      0.51330000000          1.0000000
****

Yb     0
Yb-ECP     5     28
h potential
  1
2      1.00000000             0.00000000
s-h potential
  1
2     32.42448400           891.01377700
p-h potential
  1
2     18.65623200           264.03695300
d-h potential
  1
2     10.49022200            73.92391900
f-h potential
  1
2     20.77418300           -39.59217300
g-h potential
  1
2     28.43102800           -34.63863800

































