%chk=ts-min.chk
%mem=616Gb
%nprocshared=24
# irc=(maxpoints=100,recorrect=never,calcfc,maxcycles=500,nogradstop) UMN15/genecp scrf=(smd,solvent=DiChloroEthane)  

IRC for Going from i2 to i3, where we are forming bond 7-66

0 2
C                  1.8037410000     -0.7415720000     -0.9697240000
C                  1.6326690000      0.1396900000      0.2607650000
C                  0.4998910000     -1.2490580000     -1.5689790000
O                 -0.4436830000     -0.5088540000     -1.7619450000
O                  0.6516620000      0.8348270000      0.4317480000
O                  2.6274230000      0.0487660000      1.0970200000
O                  0.5423540000     -2.5059940000     -1.9101480000
C                  2.6063630000      0.9177340000      2.2420460000
C                 -0.6823910000     -3.0634080000     -2.4234320000
H                  3.5452030000      0.7395310000      2.7770200000
H                  1.7442540000      0.6636690000      2.8713520000
H                  2.5415430000      1.9604820000      1.9029860000
H                 -0.4753250000     -4.1185950000     -2.6244500000
H                 -0.9750220000     -2.5401220000     -3.3424550000
H                 -1.4669000000     -2.9490310000     -1.6636300000
O                 -3.1763140000     -1.5245570000     -0.4254540000
O                 -1.4755070000     -0.3767300000      2.3529950000
O                 -1.3408390000      2.7481250000     -1.0281100000
S                 -1.7915280000      3.5651470000      0.1229140000
S                 -3.8124640000     -1.0287640000     -1.6742870000
S                 -0.5563950000     -1.5216270000      2.1822500000
O                 -2.1105300000      2.6676510000      1.2635100000
O                 -2.7345390000      4.6282730000     -0.1552920000
O                 -3.3893910000      0.3689920000     -1.9243720000
O                 -3.8176890000     -1.9358830000     -2.8045680000
O                 -0.3327680000     -1.8102580000      0.7452110000
O                  0.6397550000     -1.5165640000      3.0126250000
C                 -1.5080190000     -2.9800810000      2.7619460000
C                 -5.5738650000     -0.8441660000     -1.1918680000
C                 -0.2793970000      4.4501870000      0.6791830000
F                 -0.7935500000     -4.0741160000      2.5276550000
F                 -2.6586760000     -3.0671340000      2.1229060000
F                 -1.7322770000     -2.8804870000      4.0613250000
F                 -5.6622140000     -0.0368540000     -0.1417260000
F                 -6.0849780000     -2.0228990000     -0.8727580000
F                 -6.2678110000     -0.3266980000     -2.1926260000
F                  0.6297560000      3.6019350000      1.1338730000
F                 -0.5937470000      5.2990680000      1.6454670000
F                  0.2350400000      5.1291340000     -0.3386420000
C                  3.9541430000      0.0644920000     -1.8684980000
C                  4.7369480000     -1.2571500000     -1.5406070000
C                  6.1928530000     -1.0620660000     -1.4381560000
C                  4.5047140000     -2.1837370000     -2.6722350000
C                  2.4351880000     -2.9673250000      0.8586280000
C                  4.4339370000     -2.1575560000      1.9141960000
C                  3.1843940000     -2.8294200000      1.9980700000
H                  1.4761130000     -3.4845050000      0.8436170000
H                  5.0681230000     -2.0169070000      2.7918620000
H                  2.8468470000     -3.2363220000      2.9510130000
N                  7.3401280000     -0.9223450000     -1.4478050000
N                  4.3319160000     -2.8900190000     -3.5708120000
N                  4.1915520000     -1.8597000000     -0.3060410000
N                  4.9103780000     -1.6834890000      0.7868500000
C                  2.9265440000     -2.4036760000     -0.3533270000
H                  2.6286220000     -2.8372820000     -1.3129330000
H                  4.2402700000      0.3230770000     -2.8991610000
C                  4.1378510000      1.2904230000     -0.9968570000
C                  3.2381390000      2.3402780000     -1.2405840000
C                  5.1465260000      1.4567540000     -0.0407610000
C                  3.3538900000      3.5437330000     -0.5449040000
H                  2.4441320000      2.2185480000     -1.9828780000
C                  5.2622210000      2.6678180000      0.6464370000
H                  5.8482060000      0.6585380000      0.1988120000
C                  4.3730120000      3.7132900000      0.3954810000
H                  2.6461660000      4.3497390000     -0.7431430000
H                  6.0558320000      2.7866580000      1.3869690000
H                  4.4696240000      4.6576140000      0.9352610000
Yb                -1.8182830000      0.5184110000      0.0495440000
O                  2.5938840000     -0.3527630000     -1.9979570000

H     0
S    3   1.00
     13.0107010              0.19682158D-01
      1.9622572              0.13796524
      0.44453796             0.47831935
S    1   1.00
      0.12194962             1.0000000
P    1   1.00
      0.8000000              1.0000000
****
C     0
S    5   1.00
   1238.4016938              0.54568832082D-02
    186.29004992             0.40638409211D-01
     42.251176346            0.18025593888
     11.676557932            0.46315121755
      3.5930506482           0.44087173314
S    1   1.00
      0.40245147363          1.0000000
S    1   1.00
      0.13090182668          1.0000000
P    3   1.00
      9.4680970621           0.38387871728D-01
      2.0103545142           0.21117025112
      0.54771004707          0.51328172114
P    1   1.00
      0.15268613795          1.0000000
D    1   1.00
      0.8000000              1.0000000
****
N     0
S    5   1.00
   1712.8415853             -0.53934125305D-02
    257.64812677            -0.40221581118D-01
     58.458245853           -0.17931144990
     16.198367905           -0.46376317823
      5.0052600809          -0.44171422662
S    1   1.00
      0.58731856571          1.0000000
S    1   1.00
      0.18764592253          1.0000000
P    3   1.00
     13.571470233           -0.40072398852D-01
      2.9257372874          -0.21807045028
      0.79927750754         -0.51294466049
P    1   1.00
      0.21954348034          1.0000000
D    1   1.00
      1.0000000              1.0000000
****
O     0
S    5   1.00
   2266.1767785             -0.53431809926D-02
    340.87010191            -0.39890039230D-01
     77.363135167           -0.17853911985
     21.479644940           -0.46427684959
      6.6589433124          -0.44309745172
S    1   1.00
      0.80975975668          1.0000000
S    1   1.00
      0.25530772234          1.0000000
P    3   1.00
     17.721504317            0.43394573193D-01
      3.8635505440           0.23094120765
      1.0480920883           0.51375311064
P    1   1.00
      0.27641544411          1.0000000
D    1   1.00
      1.2000000              1.0000000
****
F     0
S    5   1.00
   2894.8325990             -0.53408255515D-02
    435.41939120            -0.39904258866D-01
     98.843328866           -0.17912768038
     27.485198001           -0.46758090825
      8.5405498171          -0.44653131020
S    1   1.00
      1.0654578038           1.0000000
S    1   1.00
      0.33247346748          1.0000000
P    3   1.00
     22.696633924           -0.45212874436D-01
      4.9872339257          -0.23754317067
      1.3491613954          -0.51287353587
P    1   1.00
      0.34829881977          1.0000000
D    1   1.00
      1.4000000              1.0000000
****
S     0
S    5   1.00
   9184.9303010             -0.22294387756D-02
   1381.5105503             -0.16683029937D-01
    313.87147580            -0.75262436116D-01
     88.053870623           -0.19376827038
     27.039914905           -0.17718020803
S    3   1.00
     45.648731303           -0.10736062573
      4.9664522326           0.65066293018
      2.0116242047           0.59712155354
S    1   1.00
      0.35661077013          1.0000000
S    1   1.00
      0.13507221477          1.0000000
P    5   1.00
    261.98233439            -0.92729929822D-02
     61.306894736           -0.66547669241D-01
     19.103729887           -0.24828595903
      6.6567720378          -0.48703847402
      2.3959635161          -0.39337850312
P    1   1.00
      0.61776161679          1.0000000
P    1   1.00
      0.16993376871          1.0000000
D    1   1.00
      0.5500000              1.0000000
****
Yb     0
S    5   1.00
  91972.903000               0.51000000000D-04
  13787.371000               0.38600000000D-03
   3123.6135000              0.18440000000D-02
    871.47540000             0.53560000000D-02
    250.46300000             0.88590000000D-02
S    1   1.00
     58.282700000            1.0000000
S    1   1.00
     41.630500000            1.0000000
S    1   1.00
     20.216400000            1.0000000
S    1   1.00
      4.9972000000           1.0000000
S    1   1.00
      2.4822000000           1.0000000
S    1   1.00
      0.91790000000          1.0000000
S    1   1.00
      0.38530000000          1.0000000
S    1   1.00
      0.61400000000D-01      1.0000000
S    1   1.00
      0.25000000000D-01      1.0000000
P    3   1.00
     12.274108000           -0.15252141000
     10.695631000           -0.20243492000
      2.0359782000          -0.19621046000
P    6   1.00
   1497.5567000             -0.10182934000D-02
    375.04101000            -0.60919401000D-02
    128.69727000            -0.17077693000D-01
     45.270759000           -0.35655508000D-01
     14.906971000            0.23732226000
      5.6450858000          -0.30559689000
P    1   1.00
      3.6752106000           1.0000000
P    1   1.00
      1.3296961000           1.0000000
P    1   1.00
      0.55338966000          1.0000000
P    1   1.00
      0.22382350000          1.0000000
P    1   1.00
      0.68350467650D-01      1.0000000
P    1   1.00
      0.25355670803D-01      1.0000000
D    6   1.00
    469.76060000             0.19840000000D-02
    142.61280000             0.16013000000D-01
     55.126700000            0.63153000000D-01
     23.441500000            0.13780000000
      9.4951000000           0.28549800000
      4.5792000000           0.43830900000
D    1   1.00
      2.1646000000           1.0000000
D    1   1.00
      0.92380000000          1.0000000
D    1   1.00
      0.31070000000          1.0000000
D    1   1.00
      0.91400000000D-01      1.0000000
F    5   1.00
    142.02930000             0.59570000000D-02
     51.086200000            0.53180000000D-01
     22.874100000            0.17807600000
     10.502500000            0.30060000000
      4.7872000000           0.35034200000
F    1   1.00
      2.1088000000           1.0000000
F    1   1.00
      0.86090000000          1.0000000
F    1   1.00
      0.30600000000          1.0000000
G    1   1.00
      0.51330000000          1.0000000
****

Yb     0
Yb-ECP     5     28
h potential
  1
2      1.00000000             0.00000000
s-h potential
  1
2     32.42448400           891.01377700
p-h potential
  1
2     18.65623200           264.03695300
d-h potential
  1
2     10.49022200            73.92391900
f-h potential
  1
2     20.77418300           -39.59217300
g-h potential
  1
2     28.43102800           -34.63863800
































