%chk=preplx.chk
%mem=92Gb
%nprocshared=24
#P MN15/gen scf=(maxcyc=500) freq scrf=(smd,solvent=DiChloroEthane)  

Freq

0 1
 C                 -3.17369600    0.37595200   -0.66322900
 C                 -3.13746400   -1.02507300   -0.84534200
 C                 -3.51477400   -1.58685900   -2.05925800
 C                 -3.92406500   -0.75537500   -3.10809000
 C                 -3.96378400    0.63467600   -2.94337000
 C                 -3.59887200    1.20300800   -1.72756300
 C                 -0.90409900    1.93257700    0.78178500
 C                 -0.25468400    2.02774200   -0.47473600
 C                 -0.22827100    1.30765200    1.86916900
 H                 -2.78559300   -1.65598600   -0.02479300
 H                 -3.47417700   -2.66837400   -2.20105800
 H                 -4.21175400   -1.19405900   -4.06638400
 H                 -4.29042500    1.27309100   -3.76645800
 H                 -3.65510900    2.28418400   -1.58846200
 O                  0.93935800    0.84575100    1.84990200
 O                  0.90951400    1.61439600   -0.73490400
 O                 -0.95491500    2.59756800   -1.43829000
 O                 -0.93861200    1.21888300    2.98216700
 C                 -0.41348600    2.58245100   -2.75924400
 C                 -0.36556900    0.54596900    4.10027100
 H                 -1.16462200    3.05395300   -3.40267900
 H                 -0.23174000    1.54736800   -3.07947900
 H                  0.52564400    3.14977700   -2.79569000
 H                 -1.15372000    0.49797500    4.85959600
 H                  0.49950700    1.10392000    4.48414700
 H                 -0.04509600   -0.46642700    3.81796200
 O                  2.16800400   -1.65736100    1.47435600
 O                  1.88082700   -1.01777400   -1.50209200
 O                  3.30278500    1.95074900    1.05430000
 S                  4.02821400    2.26837500   -0.21773700
 S                  3.64996900   -1.85940700    1.48153000
 S                  0.41008900   -1.31829900   -1.44683200
 O                  3.57955300    1.23197600   -1.18816000
 O                  5.43657000    2.55994500   -0.13338200
 O                  4.17575000   -0.74587200    0.64000500
 O                  4.28359100   -2.11791700    2.74965500
 O                 -0.05325700   -0.88242000   -0.11088000
 O                 -0.35943200   -0.93644800   -2.60969400
 C                  0.33441200   -3.15609600   -1.39457500
 C                  3.92805900   -3.38544400    0.48866700
 C                  3.22698000    3.84710700   -0.81079400
 F                 -0.92983600   -3.53140500   -1.52280800
 F                  0.80098500   -3.60117800   -0.24363300
 F                  1.04584800   -3.65697700   -2.38637700
 F                  3.53797300   -3.20866700   -0.75822900
 F                  3.24505200   -4.37668500    1.03289900
 F                  5.21657100   -3.67321200    0.51038400
 F                  2.12736600    4.10199300   -0.12630100
 F                  2.92980800    3.73006300   -2.09283200
 F                  4.07707100    4.84399600   -0.64854700
 C                 -2.84735900    0.90445500    0.63899700
 H                 -2.59124000    0.15592500    1.39838700
 C                 -4.98380500    0.93662900    1.60466900
 C                 -5.38938300    2.19770300    1.08699800
 C                 -4.51302200    0.83915300    2.94094900
 C                 -5.96467100   -2.54095400    0.87761400
 C                 -6.67882400   -1.01190600   -0.80107900
 C                 -6.61186800   -2.33135800   -0.32984700
 H                 -5.85964200   -3.53170700    1.32053200
 H                 -7.16534800   -0.76175200   -1.74655200
 H                 -7.05460400   -3.14787300   -0.90032600
 N                 -5.64127800    3.25150400    0.66363400
 N                 -4.05132500    0.74903100    4.00575800
 N                 -5.56789800   -0.21252900    1.01065300
 N                 -6.17061300    0.01666900   -0.14544700
 Sc                 2.12849800    0.23651500    0.25771800
 C                 -2.36692300    2.27736300    0.92908200
 H                 -2.69874400    3.03137800    0.20786800
 H                 -2.60351400    2.59718800    1.95154000
 C                 -5.42890600   -1.44383700    1.54306100
 H                 -4.90385400   -1.51518000    2.49652900

H     0
S    3   1.00
     13.0107010              0.19682158D-01
      1.9622572              0.13796524
      0.44453796             0.47831935
S    1   1.00
      0.12194962             1.0000000
P    1   1.00
      0.8000000              1.0000000
****
C     0
S    5   1.00
   1238.4016938              0.54568832082D-02
    186.29004992             0.40638409211D-01
     42.251176346            0.18025593888
     11.676557932            0.46315121755
      3.5930506482           0.44087173314
S    1   1.00
      0.40245147363          1.0000000
S    1   1.00
      0.13090182668          1.0000000
P    3   1.00
      9.4680970621           0.38387871728D-01
      2.0103545142           0.21117025112
      0.54771004707          0.51328172114
P    1   1.00
      0.15268613795          1.0000000
D    1   1.00
      0.8000000              1.0000000
****
N     0
S    5   1.00
   1712.8415853             -0.53934125305D-02
    257.64812677            -0.40221581118D-01
     58.458245853           -0.17931144990
     16.198367905           -0.46376317823
      5.0052600809          -0.44171422662
S    1   1.00
      0.58731856571          1.0000000
S    1   1.00
      0.18764592253          1.0000000
P    3   1.00
     13.571470233           -0.40072398852D-01
      2.9257372874          -0.21807045028
      0.79927750754         -0.51294466049
P    1   1.00
      0.21954348034          1.0000000
D    1   1.00
      1.0000000              1.0000000
****
O     0
S    5   1.00
   2266.1767785             -0.53431809926D-02
    340.87010191            -0.39890039230D-01
     77.363135167           -0.17853911985
     21.479644940           -0.46427684959
      6.6589433124          -0.44309745172
S    1   1.00
      0.80975975668          1.0000000
S    1   1.00
      0.25530772234          1.0000000
P    3   1.00
     17.721504317            0.43394573193D-01
      3.8635505440           0.23094120765
      1.0480920883           0.51375311064
P    1   1.00
      0.27641544411          1.0000000
D    1   1.00
      1.2000000              1.0000000
****
F     0
S    5   1.00
   2894.8325990             -0.53408255515D-02
    435.41939120            -0.39904258866D-01
     98.843328866           -0.17912768038
     27.485198001           -0.46758090825
      8.5405498171          -0.44653131020
S    1   1.00
      1.0654578038           1.0000000
S    1   1.00
      0.33247346748          1.0000000
P    3   1.00
     22.696633924           -0.45212874436D-01
      4.9872339257          -0.23754317067
      1.3491613954          -0.51287353587
P    1   1.00
      0.34829881977          1.0000000
D    1   1.00
      1.4000000              1.0000000
****
S     0
S    5   1.00
   9184.9303010             -0.22294387756D-02
   1381.5105503             -0.16683029937D-01
    313.87147580            -0.75262436116D-01
     88.053870623           -0.19376827038
     27.039914905           -0.17718020803
S    3   1.00
     45.648731303           -0.10736062573
      4.9664522326           0.65066293018
      2.0116242047           0.59712155354
S    1   1.00
      0.35661077013          1.0000000
S    1   1.00
      0.13507221477          1.0000000
P    5   1.00
    261.98233439            -0.92729929822D-02
     61.306894736           -0.66547669241D-01
     19.103729887           -0.24828595903
      6.6567720378          -0.48703847402
      2.3959635161          -0.39337850312
P    1   1.00
      0.61776161679          1.0000000
P    1   1.00
      0.16993376871          1.0000000
D    1   1.00
      0.5500000              1.0000000
****
Sc     0
S    8   1.00
 191612.9187400              0.23076475942D-03
  28723.8503630              0.17890329946D-02
   6537.0116490              0.92990401140D-02
   1850.3097171              0.37739438011D-01
    602.38855156             0.12227148359
    216.17324766             0.28814821470
     83.712517880            0.40517543099
     32.908707189            0.20566019623
S    4   1.00
    211.34393234            -0.24527991462D-01
     65.128920139           -0.11570158142
     10.034311535            0.55995283317
      4.1596884597           0.56087765073
S    2   1.00
      6.0009041613          -0.22840494325
      0.98255784150          0.71948970378
S    1   1.00
      0.42483192773          1.0000000
S    1   1.00
      0.77185462096D-01      1.0000000
S    1   1.00
      0.30147219702D-01      1.0000000
P    6   1.00
    947.34122823             0.24737208744D-02
    224.09699732             0.19742967060D-01
     71.560334882            0.90357147549D-01
     26.444824490            0.25201602503
     10.393798285            0.39675535929
      4.1606304559           0.23208624517
P    3   1.00
     15.565737135           -0.27129423974D-01
      2.1121544865           0.55109256629
      0.84184709021          1.0090635806
P    1   1.00
      0.32297542652          1.0000000
P    1   1.00
      0.0897480              1.0000000
D    4   1.00
     30.989390993            0.11902837431D-01
      8.6905465069           0.67655856850D-01
      2.9520256337           0.21332539722
      1.0761910745           0.38391075578
D    1   1.00
      0.38338915095           .43354716259
D    1   1.00
      0.12534686113           .24509263822
D    1   1.00
      0.0410000              1.0000000
F    1   1.00
      0.3450000              1.0000000
****












































































