%chk=i3-minor.chk
%mem=616Gb
%nprocshared=24
#P  UMN15/genecp scf=(maxcyc=500) opt=tight scrf=(smd,solvent=DiChloroEthane)  

Opt

0 1
 C                  2.12026600   -0.28487600   -1.06474100
 C                  1.70007700    0.17314300    0.28389000
 C                  1.02507800   -0.53122000   -2.03319500
 O                 -0.17390600   -0.62694100   -1.73033000
 O                  0.53619300    0.26944600    0.68429100
 O                  2.71275300    0.36495800    1.07631500
 O                  1.44008100   -0.71826800   -3.24951200
 C                  2.47131800    0.72486600    2.44167700
 C                  0.47316200   -1.02523100   -4.26182500
 H                  3.44918200    0.71216000    2.93525000
 H                  1.78956000   -0.00610700    2.90081300
 H                  2.02733800    1.72849900    2.49054700
 H                  1.03067100   -1.08767400   -5.20092800
 H                 -0.28345200   -0.23083600   -4.31042600
 H                 -0.00340200   -1.98940100   -4.04071000
 O                 -3.28789000   -1.36092300   -0.78460500
 O                 -1.91989200   -0.37640400    2.13791700
 O                 -0.74716700    2.17483400   -0.83799600
 S                 -1.75251400    2.97471800   -0.08170900
 S                 -3.80890800   -0.54114900   -1.92591400
 S                 -1.33568500   -1.75554500    2.17889800
 O                 -2.58463300    1.97147700    0.65871600
 O                 -2.43103000    4.04160800   -0.76809100
 O                 -2.89760000    0.64206100   -1.98577200
 O                 -4.13000100   -1.22018900   -3.15246500
 O                 -1.05408100   -2.10415400    0.75630100
 O                 -0.30603900   -2.01634300    3.15547800
 C                 -2.75174500   -2.84101000    2.63296500
 C                 -5.39384100    0.14042300   -1.28723400
 C                 -0.79179800    3.77219900    1.27188700
 F                 -2.40555200   -4.09657300    2.42551000
 F                 -3.79633800   -2.53634800    1.89025100
 F                 -3.04236300   -2.66423400    3.90753000
 F                 -5.18691600    0.68726200   -0.10237300
 F                 -6.27419900   -0.83530700   -1.17683000
 F                 -5.84062100    1.05179600   -2.12825500
 F                 -0.19588600    2.83803100    1.99842400
 F                 -1.61825000    4.46316600    2.03270200
 F                  0.12027400    4.57715800    0.76208700
 C                  4.56349800    0.30500000   -1.40555600
 C                  4.94532400   -1.20077000   -1.36038700
 C                  6.38564600   -1.43897300   -1.13682200
 C                  4.63318400   -1.74893900   -2.70572900
 C                  2.01899200   -2.69933100    0.41325700
 C                  3.96330700   -2.44342400    1.82664100
 C                  2.58472200   -2.84442500    1.63195400
 H                  0.99690000   -3.01353800    0.20109200
 H                  4.45114300   -2.54486600    2.79851600
 H                  2.02877200   -3.28289900    2.46173100
 N                  7.52217400   -1.62339200   -1.02992700
 N                  4.39896900   -2.14656600   -3.76599100
 N                  4.13111400   -1.88941800   -0.36139700
 N                  4.68785000   -1.98050400    0.86362200
 C                  2.77814100   -2.07547600   -0.66880800
 H                  2.61117100   -2.48072400   -1.67480000
 H                  5.03084800    0.69789700   -2.32285700
 C                  4.97564500    1.23392700   -0.27166200
 C                  4.38988300    2.51001000   -0.31124100
 C                  5.87716000    0.93551600    0.75346800
 C                  4.67764500    3.45768100    0.66707900
 H                  3.68335500    2.74985800   -1.10919400
 C                  6.16921000    1.89187000    1.73335300
 H                  6.34460200   -0.04529700    0.83042700
 C                  5.56890600    3.14989800    1.69984000
 H                  4.20961500    4.44255800    0.61592100
 H                  6.87022200    1.63934400    2.53198200
 H                  5.79867600    3.89038000    2.46912100
 Lu                -1.57207700    0.05235800   -0.11252800
 O                  3.16960900    0.38437500   -1.69097800

H     0
S    3   1.00
     13.0107010              0.19682158D-01
      1.9622572              0.13796524
      0.44453796             0.47831935
S    1   1.00
      0.12194962             1.0000000
P    1   1.00
      0.8000000              1.0000000
****
C     0
S    5   1.00
   1238.4016938              0.54568832082D-02
    186.29004992             0.40638409211D-01
     42.251176346            0.18025593888
     11.676557932            0.46315121755
      3.5930506482           0.44087173314
S    1   1.00
      0.40245147363          1.0000000
S    1   1.00
      0.13090182668          1.0000000
P    3   1.00
      9.4680970621           0.38387871728D-01
      2.0103545142           0.21117025112
      0.54771004707          0.51328172114
P    1   1.00
      0.15268613795          1.0000000
D    1   1.00
      0.8000000              1.0000000
****
N     0
S    5   1.00
   1712.8415853             -0.53934125305D-02
    257.64812677            -0.40221581118D-01
     58.458245853           -0.17931144990
     16.198367905           -0.46376317823
      5.0052600809          -0.44171422662
S    1   1.00
      0.58731856571          1.0000000
S    1   1.00
      0.18764592253          1.0000000
P    3   1.00
     13.571470233           -0.40072398852D-01
      2.9257372874          -0.21807045028
      0.79927750754         -0.51294466049
P    1   1.00
      0.21954348034          1.0000000
D    1   1.00
      1.0000000              1.0000000
****
O     0
S    5   1.00
   2266.1767785             -0.53431809926D-02
    340.87010191            -0.39890039230D-01
     77.363135167           -0.17853911985
     21.479644940           -0.46427684959
      6.6589433124          -0.44309745172
S    1   1.00
      0.80975975668          1.0000000
S    1   1.00
      0.25530772234          1.0000000
P    3   1.00
     17.721504317            0.43394573193D-01
      3.8635505440           0.23094120765
      1.0480920883           0.51375311064
P    1   1.00
      0.27641544411          1.0000000
D    1   1.00
      1.2000000              1.0000000
****
F     0
S    5   1.00
   2894.8325990             -0.53408255515D-02
    435.41939120            -0.39904258866D-01
     98.843328866           -0.17912768038
     27.485198001           -0.46758090825
      8.5405498171          -0.44653131020
S    1   1.00
      1.0654578038           1.0000000
S    1   1.00
      0.33247346748          1.0000000
P    3   1.00
     22.696633924           -0.45212874436D-01
      4.9872339257          -0.23754317067
      1.3491613954          -0.51287353587
P    1   1.00
      0.34829881977          1.0000000
D    1   1.00
      1.4000000              1.0000000
****
S     0
S    5   1.00
   9184.9303010             -0.22294387756D-02
   1381.5105503             -0.16683029937D-01
    313.87147580            -0.75262436116D-01
     88.053870623           -0.19376827038
     27.039914905           -0.17718020803
S    3   1.00
     45.648731303           -0.10736062573
      4.9664522326           0.65066293018
      2.0116242047           0.59712155354
S    1   1.00
      0.35661077013          1.0000000
S    1   1.00
      0.13507221477          1.0000000
P    5   1.00
    261.98233439            -0.92729929822D-02
     61.306894736           -0.66547669241D-01
     19.103729887           -0.24828595903
      6.6567720378          -0.48703847402
      2.3959635161          -0.39337850312
P    1   1.00
      0.61776161679          1.0000000
P    1   1.00
      0.16993376871          1.0000000
D    1   1.00
      0.5500000              1.0000000
****
Lu     0
S    5   1.00
  95169.767000               0.22000000000D-04
  15488.403000               0.14500000000D-03
   3776.2335000              0.65100000000D-03
   1079.0501000              0.20380000000D-02
    268.95380000             0.51270000000D-02
S    1   1.00
     63.467900000            1.0000000
S    1   1.00
     45.133200000            1.0000000
S    1   1.00
     21.456800000            1.0000000
S    1   1.00
      5.3483000000           1.0000000
S    1   1.00
      2.6778000000           1.0000000
S    1   1.00
      1.0287000000           1.0000000
S    1   1.00
      0.44080000000          1.0000000
S    1   1.00
      0.79100000000D-01      1.0000000
S    1   1.00
      0.31300000000D-01      1.0000000
P    3   1.00
     12.333733920           -0.15313031066
     11.080331415           -0.20300664852
      2.0341747228          -0.19458361263
P    6   1.00
   1500.5317313             -0.10192569555D-02
    382.39748937            -0.59476212135D-02
    132.99969628            -0.16265160929D-01
     46.110032419           -0.35623845839D-01
     15.583529011            0.23709171074
      5.7856677022          -0.30670977844
P    1   1.00
      3.7823361008           1.0000000
P    1   1.00
      1.3682592248           1.0000000
P    1   1.00
      0.57288205601          1.0000000
P    1   1.00
      0.22793165135          1.0000000
P    1   1.00
      0.81403917986D-01      1.0000000
P    1   1.00
      0.29091071778D-01      1.0000000
D    6   1.00
    484.52750000             0.22860000000D-02
    146.66550000             0.18629000000D-01
     56.377900000            0.74088000000D-01
     23.671100000            0.16155400000
      9.4401000000           0.30809100000
      4.3712000000           0.44833400000
D    1   1.00
      1.9580000000           1.0000000
D    1   1.00
      0.72720000000          1.0000000
D    1   1.00
      0.24600000000          1.0000000
D    1   1.00
      0.74400000000D-01      1.0000000
F    5   1.00
    175.15590000             0.41020000000D-02
     62.890900000            0.39086000000D-01
     28.362400000            0.14704400000
     13.247800000            0.27109200000
      6.1440000000           0.34566500000
F    1   1.00
      2.7623000000           1.0000000
F    1   1.00
      1.1574000000           1.0000000
F    1   1.00
      0.42440000000          1.0000000
G    1   1.00
      0.70090000000          1.0000000
****

Lu     0
Lu-ECP     5     28
h potential
  1
2      1.00000000             0.00000000
s-h potential
  1
2     35.16209700           989.99558400
p-h potential
  1
2     19.46440200           278.86565200
d-h potential
  1
2     10.00686500            71.00917800
f-h potential
  1
2     23.51793200           -47.40589000
g-h potential
  1
2     29.41223800           -35.55714600




