%chk=i3-maj.chk
%mem=616Gb
%nprocshared=24
#P  MN15/gen scf=(maxcyc=500) freq scrf=(smd,solvent=DiChloroEthane)  

Opt

0 1
C                  5.5162260000     -0.8137570000      0.1954960000
C                  5.7120820000     -1.5101830000      1.3977060000
C                  6.8173760000     -2.3490330000      1.5568020000
C                  7.7392780000     -2.5049660000      0.5197660000
C                  7.5539930000     -1.8146940000     -0.6803660000
C                  6.4513640000     -0.9748610000     -0.8380840000
C                  1.7739760000      0.4980510000      0.4546490000
C                  1.1333230000      0.5052630000     -0.9348810000
C                  0.8209050000      0.1539450000      1.5991530000
H                  5.0087250000     -1.4056260000      2.2274010000
H                  6.9557580000     -2.8841590000      2.4987740000
H                  8.6006040000     -3.1646100000      0.6463800000
H                  8.2690800000     -1.9305030000     -1.4977280000
H                  6.3075310000     -0.4319900000     -1.7769360000
O                 -0.3971310000      0.3341770000      1.5021540000
O                 -0.0765450000      0.3617810000     -1.1117490000
O                 -3.4406680000      0.4172970000      1.3718120000
O                 -3.0623160000      0.5748080000     -1.5433380000
O                 -0.1691310000     -2.0003890000      0.1632380000
S                 -0.8857760000     -2.7977270000     -0.8702660000
S                 -3.6990120000     -0.9260660000      1.9856350000
S                 -2.9042920000      2.0399960000     -1.2368910000
O                 -2.0071250000     -1.9126310000     -1.3356540000
O                 -1.1961780000     -4.1739260000     -0.5863210000
O                 -2.5954020000     -1.7726320000      1.4340440000
O                 -3.9853420000     -0.9928670000      3.3911010000
O                 -1.9319690000      2.0695090000     -0.1078500000
O                 -2.6794270000      2.9240080000     -2.3501970000
C                 -4.5510560000      2.5445360000     -0.5033240000
C                 -5.1863180000     -1.5152320000      1.0743110000
C                  0.2793060000     -2.8323970000     -2.3147980000
F                 -4.3577380000      3.0739540000      0.6859600000
F                 -5.3459840000      1.4976270000     -0.4087180000
F                 -5.0999930000      3.4398880000     -1.3009870000
F                 -4.9187470000     -1.4611670000     -0.2195030000
F                 -6.2101730000     -0.7347430000      1.3533170000
F                 -5.4567900000     -2.7559790000      1.4236970000
F                  1.5204360000     -2.8962980000     -1.8554200000
F                  0.1427310000     -1.7399470000     -3.0419190000
F                  0.0267530000     -3.8917220000     -3.0538780000
C                  4.3539160000      0.1346660000     -0.0249420000
H                  4.3152840000      0.3471210000     -1.1024060000
C                  4.5882340000      1.5459070000      0.6071820000
C                  5.8466640000      2.1185450000      0.0884670000
C                  4.7041830000      1.4383900000      2.0839790000
C                  1.1242860000      2.9966530000      0.4194730000
C                  2.6797980000      3.9873170000     -1.1492420000
C                  1.3592990000      3.9071680000     -0.5392180000
H                  0.1468680000      2.9069600000      0.8983100000
H                  2.8852090000      4.6810730000     -1.9674390000
H                  0.5774080000      4.5954780000     -0.8640140000
N                  6.8733570000      2.4877050000     -0.2955330000
N                  4.7345900000      1.3206090000      3.2351830000
N                  3.4649860000      2.4129550000      0.2868410000
N                  3.6630480000      3.2586820000     -0.7485580000
C                  2.1830150000      2.0173590000      0.8324740000
H                  2.2748200000      2.0105280000      1.9342230000
Sc                -1.7913320000     -0.2218950000      0.0221790000
C                  3.0197740000     -0.4311030000      0.4787900000
H                  2.7878970000     -1.3499040000     -0.0818290000
H                  3.1769860000     -0.7466760000      1.5167280000
C                  1.3513190000     -0.3221040000      2.9046530000
H                  1.5281590000     -1.4074240000      2.7989250000
H                  2.3047890000      0.1428770000      3.1886950000
H                  0.5874410000     -0.1688540000      3.6753220000
C                  1.9906170000      0.6582650000     -2.1417170000
H                  2.7520960000      1.4389170000     -2.0281660000
H                  2.5163220000     -0.2992090000     -2.3031970000
H                  1.3524570000      0.8628690000     -3.0088100000

H     0
S    3   1.00
     13.0107010              0.19682158D-01
      1.9622572              0.13796524
      0.44453796             0.47831935
S    1   1.00
      0.12194962             1.0000000
P    1   1.00
      0.8000000              1.0000000
****
C     0
S    5   1.00
   1238.4016938              0.54568832082D-02
    186.29004992             0.40638409211D-01
     42.251176346            0.18025593888
     11.676557932            0.46315121755
      3.5930506482           0.44087173314
S    1   1.00
      0.40245147363          1.0000000
S    1   1.00
      0.13090182668          1.0000000
P    3   1.00
      9.4680970621           0.38387871728D-01
      2.0103545142           0.21117025112
      0.54771004707          0.51328172114
P    1   1.00
      0.15268613795          1.0000000
D    1   1.00
      0.8000000              1.0000000
****
N     0
S    5   1.00
   1712.8415853             -0.53934125305D-02
    257.64812677            -0.40221581118D-01
     58.458245853           -0.17931144990
     16.198367905           -0.46376317823
      5.0052600809          -0.44171422662
S    1   1.00
      0.58731856571          1.0000000
S    1   1.00
      0.18764592253          1.0000000
P    3   1.00
     13.571470233           -0.40072398852D-01
      2.9257372874          -0.21807045028
      0.79927750754         -0.51294466049
P    1   1.00
      0.21954348034          1.0000000
D    1   1.00
      1.0000000              1.0000000
****
O     0
S    5   1.00
   2266.1767785             -0.53431809926D-02
    340.87010191            -0.39890039230D-01
     77.363135167           -0.17853911985
     21.479644940           -0.46427684959
      6.6589433124          -0.44309745172
S    1   1.00
      0.80975975668          1.0000000
S    1   1.00
      0.25530772234          1.0000000
P    3   1.00
     17.721504317            0.43394573193D-01
      3.8635505440           0.23094120765
      1.0480920883           0.51375311064
P    1   1.00
      0.27641544411          1.0000000
D    1   1.00
      1.2000000              1.0000000
****
F     0
S    5   1.00
   2894.8325990             -0.53408255515D-02
    435.41939120            -0.39904258866D-01
     98.843328866           -0.17912768038
     27.485198001           -0.46758090825
      8.5405498171          -0.44653131020
S    1   1.00
      1.0654578038           1.0000000
S    1   1.00
      0.33247346748          1.0000000
P    3   1.00
     22.696633924           -0.45212874436D-01
      4.9872339257          -0.23754317067
      1.3491613954          -0.51287353587
P    1   1.00
      0.34829881977          1.0000000
D    1   1.00
      1.4000000              1.0000000
****
S     0
S    5   1.00
   9184.9303010             -0.22294387756D-02
   1381.5105503             -0.16683029937D-01
    313.87147580            -0.75262436116D-01
     88.053870623           -0.19376827038
     27.039914905           -0.17718020803
S    3   1.00
     45.648731303           -0.10736062573
      4.9664522326           0.65066293018
      2.0116242047           0.59712155354
S    1   1.00
      0.35661077013          1.0000000
S    1   1.00
      0.13507221477          1.0000000
P    5   1.00
    261.98233439            -0.92729929822D-02
     61.306894736           -0.66547669241D-01
     19.103729887           -0.24828595903
      6.6567720378          -0.48703847402
      2.3959635161          -0.39337850312
P    1   1.00
      0.61776161679          1.0000000
P    1   1.00
      0.16993376871          1.0000000
D    1   1.00
      0.5500000              1.0000000
****
Sc     0
S    8   1.00
 191612.9187400              0.23076475942D-03
  28723.8503630              0.17890329946D-02
   6537.0116490              0.92990401140D-02
   1850.3097171              0.37739438011D-01
    602.38855156             0.12227148359
    216.17324766             0.28814821470
     83.712517880            0.40517543099
     32.908707189            0.20566019623
S    4   1.00
    211.34393234            -0.24527991462D-01
     65.128920139           -0.11570158142
     10.034311535            0.55995283317
      4.1596884597           0.56087765073
S    2   1.00
      6.0009041613          -0.22840494325
      0.98255784150          0.71948970378
S    1   1.00
      0.42483192773          1.0000000
S    1   1.00
      0.77185462096D-01      1.0000000
S    1   1.00
      0.30147219702D-01      1.0000000
P    6   1.00
    947.34122823             0.24737208744D-02
    224.09699732             0.19742967060D-01
     71.560334882            0.90357147549D-01
     26.444824490            0.25201602503
     10.393798285            0.39675535929
      4.1606304559           0.23208624517
P    3   1.00
     15.565737135           -0.27129423974D-01
      2.1121544865           0.55109256629
      0.84184709021          1.0090635806
P    1   1.00
      0.32297542652          1.0000000
P    1   1.00
      0.0897480              1.0000000
D    4   1.00
     30.989390993            0.11902837431D-01
      8.6905465069           0.67655856850D-01
      2.9520256337           0.21332539722
      1.0761910745           0.38391075578
D    1   1.00
      0.38338915095           .43354716259
D    1   1.00
      0.12534686113           .24509263822
D    1   1.00
      0.0410000              1.0000000
F    1   1.00
      0.3450000              1.0000000
****





























































