%chk=ts-ketone.chk
%mem=616Gb
%nprocshared=24
# irc=(maxpoints=100,recorrect=never,calcfc,maxcycles=500,nogradstop) MN15/gen scrf=(smd,solvent=DiChloroEthane)  

IRC for Going from i2 to i3, where we are forming bond 7-66

0 1
C                  5.8426790000     -0.5784600000      0.5594930000
C                  6.0689750000     -0.9769210000      1.8850560000
C                  7.2809880000     -1.5697590000      2.2460280000
C                  8.2781220000     -1.7730940000      1.2899440000
C                  8.0603530000     -1.3808180000     -0.0330110000
C                  6.8503160000     -0.7879540000     -0.3937720000
C                  1.9275550000     -0.0052800000      0.3753240000
C                  1.4707070000     -0.3018960000     -0.9902900000
C                  0.8824860000     -0.0618390000      1.4204220000
H                  5.3033870000     -0.8276870000      2.6499670000
H                  7.4436270000     -1.8756570000      3.2817610000
H                  9.2237290000     -2.2395750000      1.5750560000
H                  8.8332720000     -1.5391420000     -0.7881600000
H                  6.6781770000     -0.4814370000     -1.4297190000
O                 -0.3147830000      0.1608450000      1.1587460000
O                  0.2992790000     -0.0332070000     -1.3608180000
O                 -3.6819380000      1.3715300000      2.3143270000
O                 -2.6065910000      0.8038410000     -2.1489090000
O                 -0.7590520000     -2.2608680000      0.0311100000
S                 -1.6168540000     -2.9796720000     -0.9606910000
S                 -3.4222990000     -0.0537360000      2.2632950000
S                 -2.6508640000      2.1674870000     -1.5267080000
O                 -2.3949320000     -1.8857460000     -1.6293440000
O                 -2.3270310000     -4.1519820000     -0.5271610000
O                 -3.0944320000     -0.5322930000      0.8540480000
O                 -2.5713390000     -0.6592970000      3.2684110000
O                 -1.9361070000      1.9797530000     -0.2246030000
O                 -2.2846490000      3.2978370000     -2.3402000000
C                 -4.4161940000      2.4155740000     -1.0515460000
C                 -5.0588190000     -0.8642950000      2.4630710000
C                 -0.4273020000     -3.5418870000     -2.2690300000
F                 -4.4792210000      3.3938700000     -0.1727340000
F                 -4.8937420000      1.3047360000     -0.5321000000
F                 -5.1022340000      2.7369130000     -2.1309970000
F                 -4.9297120000     -2.1764160000      2.3562610000
F                 -5.8996730000     -0.4324240000      1.5381970000
F                 -5.5393590000     -0.5696850000      3.6605800000
F                 -0.2663630000     -2.5793500000     -3.1590510000
F                 -0.9046740000     -4.6168880000     -2.8585350000
F                  0.7348110000     -3.8183450000     -1.7054860000
C                  4.5541910000      0.0882750000      0.1208690000
H                  4.4913580000     -0.0064290000     -0.9721630000
C                  4.5957520000      1.6369190000      0.3401980000
C                  5.7457910000      2.2339890000     -0.3675420000
C                  4.7094170000      1.9438820000      1.7826150000
C                  1.0106530000      2.6262650000     -0.0512810000
C                  2.2679710000      2.7961940000     -2.0893070000
C                  1.0479410000      3.0024900000     -1.3539640000
H                  0.1301990000      2.7571500000      0.5761400000
H                  2.3247430000      2.9927450000     -3.1620930000
H                  0.1874550000      3.4592250000     -1.8462080000
N                  6.6795780000      2.6617990000     -0.8986170000
N                  4.7660270000      2.1155920000      2.9254050000
N                  3.3489320000      2.2103210000     -0.1916310000
N                  3.3744520000      2.4263180000     -1.5154610000
C                  2.1756330000      1.9593440000      0.4949600000
H                  2.3007700000      1.9764810000      1.5823460000
Sc                -1.5908830000     -0.2044530000     -0.4655900000
C                  3.3095310000     -0.5090190000      0.8016060000
H                  3.3639790000     -1.6033940000      0.6840730000
H                  3.4138550000     -0.3178390000      1.8782610000
C                  2.3699780000     -0.9451970000     -1.9997260000
H                  3.0403690000     -0.1928960000     -2.4430160000
H                  2.9921810000     -1.7320790000     -1.5513100000
H                  1.7546550000     -1.3548770000     -2.8073470000
C                  1.2357380000     -0.3206850000      2.8472100000
H                  1.6841670000     -1.3224030000      2.9412160000
H                  1.9809460000      0.4022680000      3.2180760000
H                  0.3183710000     -0.2643820000      3.4442800000

H     0
S    3   1.00
     13.0107010              0.19682158D-01
      1.9622572              0.13796524
      0.44453796             0.47831935
S    1   1.00
      0.12194962             1.0000000
P    1   1.00
      0.8000000              1.0000000
****
C     0
S    5   1.00
   1238.4016938              0.54568832082D-02
    186.29004992             0.40638409211D-01
     42.251176346            0.18025593888
     11.676557932            0.46315121755
      3.5930506482           0.44087173314
S    1   1.00
      0.40245147363          1.0000000
S    1   1.00
      0.13090182668          1.0000000
P    3   1.00
      9.4680970621           0.38387871728D-01
      2.0103545142           0.21117025112
      0.54771004707          0.51328172114
P    1   1.00
      0.15268613795          1.0000000
D    1   1.00
      0.8000000              1.0000000
****
N     0
S    5   1.00
   1712.8415853             -0.53934125305D-02
    257.64812677            -0.40221581118D-01
     58.458245853           -0.17931144990
     16.198367905           -0.46376317823
      5.0052600809          -0.44171422662
S    1   1.00
      0.58731856571          1.0000000
S    1   1.00
      0.18764592253          1.0000000
P    3   1.00
     13.571470233           -0.40072398852D-01
      2.9257372874          -0.21807045028
      0.79927750754         -0.51294466049
P    1   1.00
      0.21954348034          1.0000000
D    1   1.00
      1.0000000              1.0000000
****
O     0
S    5   1.00
   2266.1767785             -0.53431809926D-02
    340.87010191            -0.39890039230D-01
     77.363135167           -0.17853911985
     21.479644940           -0.46427684959
      6.6589433124          -0.44309745172
S    1   1.00
      0.80975975668          1.0000000
S    1   1.00
      0.25530772234          1.0000000
P    3   1.00
     17.721504317            0.43394573193D-01
      3.8635505440           0.23094120765
      1.0480920883           0.51375311064
P    1   1.00
      0.27641544411          1.0000000
D    1   1.00
      1.2000000              1.0000000
****
F     0
S    5   1.00
   2894.8325990             -0.53408255515D-02
    435.41939120            -0.39904258866D-01
     98.843328866           -0.17912768038
     27.485198001           -0.46758090825
      8.5405498171          -0.44653131020
S    1   1.00
      1.0654578038           1.0000000
S    1   1.00
      0.33247346748          1.0000000
P    3   1.00
     22.696633924           -0.45212874436D-01
      4.9872339257          -0.23754317067
      1.3491613954          -0.51287353587
P    1   1.00
      0.34829881977          1.0000000
D    1   1.00
      1.4000000              1.0000000
****
S     0
S    5   1.00
   9184.9303010             -0.22294387756D-02
   1381.5105503             -0.16683029937D-01
    313.87147580            -0.75262436116D-01
     88.053870623           -0.19376827038
     27.039914905           -0.17718020803
S    3   1.00
     45.648731303           -0.10736062573
      4.9664522326           0.65066293018
      2.0116242047           0.59712155354
S    1   1.00
      0.35661077013          1.0000000
S    1   1.00
      0.13507221477          1.0000000
P    5   1.00
    261.98233439            -0.92729929822D-02
     61.306894736           -0.66547669241D-01
     19.103729887           -0.24828595903
      6.6567720378          -0.48703847402
      2.3959635161          -0.39337850312
P    1   1.00
      0.61776161679          1.0000000
P    1   1.00
      0.16993376871          1.0000000
D    1   1.00
      0.5500000              1.0000000
****
Sc     0
S    8   1.00
 191612.9187400              0.23076475942D-03
  28723.8503630              0.17890329946D-02
   6537.0116490              0.92990401140D-02
   1850.3097171              0.37739438011D-01
    602.38855156             0.12227148359
    216.17324766             0.28814821470
     83.712517880            0.40517543099
     32.908707189            0.20566019623
S    4   1.00
    211.34393234            -0.24527991462D-01
     65.128920139           -0.11570158142
     10.034311535            0.55995283317
      4.1596884597           0.56087765073
S    2   1.00
      6.0009041613          -0.22840494325
      0.98255784150          0.71948970378
S    1   1.00
      0.42483192773          1.0000000
S    1   1.00
      0.77185462096D-01      1.0000000
S    1   1.00
      0.30147219702D-01      1.0000000
P    6   1.00
    947.34122823             0.24737208744D-02
    224.09699732             0.19742967060D-01
     71.560334882            0.90357147549D-01
     26.444824490            0.25201602503
     10.393798285            0.39675535929
      4.1606304559           0.23208624517
P    3   1.00
     15.565737135           -0.27129423974D-01
      2.1121544865           0.55109256629
      0.84184709021          1.0090635806
P    1   1.00
      0.32297542652          1.0000000
P    1   1.00
      0.0897480              1.0000000
D    4   1.00
     30.989390993            0.11902837431D-01
      8.6905465069           0.67655856850D-01
      2.9520256337           0.21332539722
      1.0761910745           0.38391075578
D    1   1.00
      0.38338915095           .43354716259
D    1   1.00
      0.12534686113           .24509263822
D    1   1.00
      0.0410000              1.0000000
F    1   1.00
      0.3450000              1.0000000
****

























