%chk=i2.chk
%mem=616Gb
%nprocshared=24
#P  MN15/gen scf=(maxcyc=500) freq scrf=(smd,solvent=DiChloroEthane)  

freq

0 1
C                 -5.6619870000      0.4474220000     -0.1257030000
C                 -6.4206220000      0.3232770000     -1.2983670000
C                 -7.7189330000      0.8301130000     -1.3631310000
C                 -8.2751050000      1.4687320000     -0.2519890000
C                 -7.5264680000      1.5995800000      0.9196620000
C                 -6.2261960000      1.0940630000      0.9839130000
C                 -1.7802540000      0.5570890000      0.3915170000
C                 -1.1594580000      0.8891380000     -0.8372990000
C                 -1.0028430000     -0.0065490000      1.4188990000
H                 -5.9822230000     -0.1765640000     -2.1670280000
H                 -8.2959780000      0.7287750000     -2.2848750000
H                 -9.2907760000      1.8677900000     -0.3005210000
H                 -7.9536140000      2.1018580000      1.7904010000
H                 -5.6530520000      1.2117080000      1.9066160000
O                  0.2379310000     -0.2615300000      1.3877510000
O                  0.0800330000      0.9031680000     -1.0801930000
O                 -1.9899890000      1.2208570000     -1.8183450000
O                 -1.6770740000     -0.3507280000      2.5208090000
C                 -1.4231850000      1.5265560000     -3.0897220000
C                 -0.9457430000     -0.8720430000      3.6248700000
H                 -2.2649820000      1.6883160000     -3.7715890000
H                 -0.8006230000      0.6929760000     -3.4446880000
H                 -0.8066360000      2.4330390000     -3.0338420000
H                 -1.6876320000     -1.1104810000      4.3963100000
H                 -0.2356710000     -0.1251030000      4.0067960000
H                 -0.3870730000     -1.7766720000      3.3414200000
O                  3.0399330000     -1.2499120000      0.8804970000
O                  2.7355430000     -0.0557110000     -1.7837640000
O                  0.8779270000      2.3951310000      1.1333860000
S                  1.7764410000      3.2657680000      0.3339160000
S                  3.7510650000     -0.4481770000      1.9227680000
S                  2.0679320000     -1.3583910000     -2.0910300000
O                  2.5903150000      2.3350370000     -0.5131800000
O                  2.4793340000      4.3318040000      1.0031550000
O                  3.0671300000      0.8774660000      1.9034240000
O                  4.0107870000     -1.0694550000      3.1951990000
O                  1.1295990000     -1.6046040000     -0.9658740000
O                  1.5652980000     -1.5479940000     -3.4319930000
C                  3.4197400000     -2.6302410000     -1.8782620000
C                  5.3843110000     -0.1096200000      1.1483410000
C                  0.6534740000      4.1092790000     -0.9013230000
F                  3.0094570000     -3.5686730000     -1.0430060000
F                  4.5162140000     -2.0680170000     -1.4115020000
F                  3.6785320000     -3.1780880000     -3.0521100000
F                  5.1867000000      0.4766130000     -0.0192050000
F                  6.0303830000     -1.2470400000      0.9721530000
F                  6.0897510000      0.6852380000      1.9305810000
F                 -0.5982270000      3.7172570000     -0.7243880000
F                  1.0319780000      3.8094940000     -2.1306350000
F                  0.7229030000      5.4154460000     -0.7287790000
C                 -4.2503850000     -0.1114770000     -0.0955480000
H                 -3.9360670000     -0.2921540000     -1.1336340000
C                 -4.2714420000     -1.5437480000      0.5555880000
C                 -5.3014640000     -2.3812800000     -0.0943980000
C                 -4.5688570000     -1.4363280000      1.9943360000
C                 -1.1376110000     -3.5822920000      1.0334900000
C                 -1.4700930000     -2.8726950000     -1.2291550000
C                 -0.6916170000     -3.5623380000     -0.2711060000
H                 -0.6061170000     -4.1021000000      1.8306460000
H                 -1.1728610000     -2.8237440000     -2.2785690000
H                  0.2306580000     -4.0580150000     -0.5726850000
N                 -6.0891080000     -3.0399510000     -0.6265970000
N                 -4.8122780000     -1.3106730000      3.1180140000
N                 -2.9684550000     -2.2667500000      0.3464490000
N                 -2.5831390000     -2.2509650000     -0.9168800000
Sc                 1.7005420000      0.4213870000      0.1260400000
C                 -3.2492250000      0.8405830000      0.5805090000
H                 -3.4736190000      1.8318390000      0.1574880000
H                 -3.4660840000      0.9079170000      1.6566970000
C                 -2.3270630000     -2.9099590000      1.3258160000
H                 -2.7623970000     -2.8891990000      2.3262450000

H     0
S    3   1.00
     13.0107010              0.19682158D-01
      1.9622572              0.13796524
      0.44453796             0.47831935
S    1   1.00
      0.12194962             1.0000000
P    1   1.00
      0.8000000              1.0000000
****
C     0
S    5   1.00
   1238.4016938              0.54568832082D-02
    186.29004992             0.40638409211D-01
     42.251176346            0.18025593888
     11.676557932            0.46315121755
      3.5930506482           0.44087173314
S    1   1.00
      0.40245147363          1.0000000
S    1   1.00
      0.13090182668          1.0000000
P    3   1.00
      9.4680970621           0.38387871728D-01
      2.0103545142           0.21117025112
      0.54771004707          0.51328172114
P    1   1.00
      0.15268613795          1.0000000
D    1   1.00
      0.8000000              1.0000000
****
N     0
S    5   1.00
   1712.8415853             -0.53934125305D-02
    257.64812677            -0.40221581118D-01
     58.458245853           -0.17931144990
     16.198367905           -0.46376317823
      5.0052600809          -0.44171422662
S    1   1.00
      0.58731856571          1.0000000
S    1   1.00
      0.18764592253          1.0000000
P    3   1.00
     13.571470233           -0.40072398852D-01
      2.9257372874          -0.21807045028
      0.79927750754         -0.51294466049
P    1   1.00
      0.21954348034          1.0000000
D    1   1.00
      1.0000000              1.0000000
****
O     0
S    5   1.00
   2266.1767785             -0.53431809926D-02
    340.87010191            -0.39890039230D-01
     77.363135167           -0.17853911985
     21.479644940           -0.46427684959
      6.6589433124          -0.44309745172
S    1   1.00
      0.80975975668          1.0000000
S    1   1.00
      0.25530772234          1.0000000
P    3   1.00
     17.721504317            0.43394573193D-01
      3.8635505440           0.23094120765
      1.0480920883           0.51375311064
P    1   1.00
      0.27641544411          1.0000000
D    1   1.00
      1.2000000              1.0000000
****
F     0
S    5   1.00
   2894.8325990             -0.53408255515D-02
    435.41939120            -0.39904258866D-01
     98.843328866           -0.17912768038
     27.485198001           -0.46758090825
      8.5405498171          -0.44653131020
S    1   1.00
      1.0654578038           1.0000000
S    1   1.00
      0.33247346748          1.0000000
P    3   1.00
     22.696633924           -0.45212874436D-01
      4.9872339257          -0.23754317067
      1.3491613954          -0.51287353587
P    1   1.00
      0.34829881977          1.0000000
D    1   1.00
      1.4000000              1.0000000
****
S     0
S    5   1.00
   9184.9303010             -0.22294387756D-02
   1381.5105503             -0.16683029937D-01
    313.87147580            -0.75262436116D-01
     88.053870623           -0.19376827038
     27.039914905           -0.17718020803
S    3   1.00
     45.648731303           -0.10736062573
      4.9664522326           0.65066293018
      2.0116242047           0.59712155354
S    1   1.00
      0.35661077013          1.0000000
S    1   1.00
      0.13507221477          1.0000000
P    5   1.00
    261.98233439            -0.92729929822D-02
     61.306894736           -0.66547669241D-01
     19.103729887           -0.24828595903
      6.6567720378          -0.48703847402
      2.3959635161          -0.39337850312
P    1   1.00
      0.61776161679          1.0000000
P    1   1.00
      0.16993376871          1.0000000
D    1   1.00
      0.5500000              1.0000000
****
Sc     0
S    8   1.00
 191612.9187400              0.23076475942D-03
  28723.8503630              0.17890329946D-02
   6537.0116490              0.92990401140D-02
   1850.3097171              0.37739438011D-01
    602.38855156             0.12227148359
    216.17324766             0.28814821470
     83.712517880            0.40517543099
     32.908707189            0.20566019623
S    4   1.00
    211.34393234            -0.24527991462D-01
     65.128920139           -0.11570158142
     10.034311535            0.55995283317
      4.1596884597           0.56087765073
S    2   1.00
      6.0009041613          -0.22840494325
      0.98255784150          0.71948970378
S    1   1.00
      0.42483192773          1.0000000
S    1   1.00
      0.77185462096D-01      1.0000000
S    1   1.00
      0.30147219702D-01      1.0000000
P    6   1.00
    947.34122823             0.24737208744D-02
    224.09699732             0.19742967060D-01
     71.560334882            0.90357147549D-01
     26.444824490            0.25201602503
     10.393798285            0.39675535929
      4.1606304559           0.23208624517
P    3   1.00
     15.565737135           -0.27129423974D-01
      2.1121544865           0.55109256629
      0.84184709021          1.0090635806
P    1   1.00
      0.32297542652          1.0000000
P    1   1.00
      0.0897480              1.0000000
D    4   1.00
     30.989390993            0.11902837431D-01
      8.6905465069           0.67655856850D-01
      2.9520256337           0.21332539722
      1.0761910745           0.38391075578
D    1   1.00
      0.38338915095           .43354716259
D    1   1.00
      0.12534686113           .24509263822
D    1   1.00
      0.0410000              1.0000000
F    1   1.00
      0.3450000              1.0000000
****





























































