%chk=preplx.chk
%mem=616Gb
%nprocshared=24
#P UMN15/genecp scf=(maxcyc=500) opt=(modred) scrf=(smd,solvent=DiChloroEthane)  

Opt

0 1
 C                 -4.85397896    2.04037529    0.94961427
 C                 -5.79351797    2.78357326    0.21943056
 C                 -6.62257225    3.72973710    0.81957249
 C                 -6.50910290    3.93727101    2.19014390
 C                 -5.58988257    3.16449140    2.94154114
 C                 -4.75515145    2.21285648    2.32563721
 C                 -1.70778187    0.64023209    0.25330148
 C                 -0.93761979    1.27429304   -0.94442153
 C                 -0.89884810    0.73800430    1.62512343
 H                 -5.86950570    2.61828928   -0.82672402
 H                 -7.32464324    4.29576371    0.23048931
 H                 -7.12419818    4.67817655    2.66790797
 H                 -5.51886598    3.30706336    3.98675127
 H                 -4.05968419    1.63917974    2.90318769
 O                  0.35228738    0.93982361    1.76000764
 O                  0.28200142    1.60469301   -1.01412587
 O                 -1.68356511    1.48014686   -1.99617432
 O                 -1.55090971    0.57781073    2.74530462
 C                 -1.06140261    1.82403955   -3.22298493
 C                 -0.80518805    0.24157907    3.91737788
 H                 -1.67213421    1.47784511   -4.02193865
 H                 -0.09357591    1.36328789   -3.28175193
 H                 -0.94875296    2.88719474   -3.28710083
 H                 -1.40387289   -0.39365458    4.53843416
 H                 -0.53773497    1.12323769    4.46073278
 H                  0.08387996   -0.28106735    3.62122627
 O                  2.61201111   -1.43247455    1.32722676
 O                  2.34645033   -0.64910619   -1.84258602
 O                  2.33800693    2.85994814    0.36078487
 S                  3.55629536    3.03996140   -0.43854224
 S                  3.64813246   -0.93027862    2.21755902
 S                  1.25859172   -1.62005165   -1.77090868
 O                  3.82122838    1.66388525   -0.84629042
 O                  4.66665905    3.59087752    0.35386275
 O                  3.61057402    0.49345049    1.90388778
 O                  3.35082297   -1.17881878    3.62262999
 O                  0.58566647   -1.21388774   -0.54996438
 O                  0.34505339   -1.54502043   -2.90410659
 C                  1.93171995   -3.25616269   -1.66952656
 C                  5.21575954   -1.64937917    1.83716379
 C                  3.28580916    4.09850311   -1.82617909
 F                  0.94593116   -4.14698118   -1.48733210
 F                  2.79978682   -3.32206765   -0.63423778
 F                  2.58800839   -3.53476785   -2.81388340
 F                  5.48376731   -1.39434886    0.53791456
 F                  5.20048537   -2.98688009    2.03588026
 F                  6.16131120   -1.10226163    2.62342287
 F                  2.27400777    3.60452419   -2.56702225
 F                  4.41281139    4.14723428   -2.56880489
 F                  2.97391404    5.33806427   -1.40020820
 C                 -3.99293720    1.08329390    0.09778342
 H                 -4.32774364    1.38685466   -0.88165341
 C                 -5.39509554   -1.24435278   -0.05745152
 C                 -6.80816865   -1.20447910   -0.69654371
 C                 -5.14511615   -0.53803641    1.28332207
 C                 -2.90671708   -3.82565299   -0.97356918
 C                 -2.75694912   -1.99373899   -2.51850755
 C                 -2.34972345   -3.26965389   -2.08920793
 H                 -2.58436826   -4.78773057   -0.59895184
 H                 -2.31832608   -1.56493844   -3.40538829
 H                 -1.58345339   -3.80340821   -2.64460369
 N                 -7.82965599   -1.09147669   -1.22325728
 N                 -4.96360618   -0.03021160    2.30626079
 N                 -4.30106651   -1.94645770   -0.73184591
 N                 -3.65787034   -1.34544935   -1.83343761
 C                 -3.91718713   -3.15191432   -0.31072888
 H                 -4.39170228   -3.60278367    0.54270591
 Lu                 1.98653173    0.54316539    0.16302825
 O                 -2.66981450    1.73345106    0.13721130

51 53 F

H     0
S    3   1.00
     13.0107010              0.19682158D-01
      1.9622572              0.13796524
      0.44453796             0.47831935
S    1   1.00
      0.12194962             1.0000000
P    1   1.00
      0.8000000              1.0000000
****
C     0
S    5   1.00
   1238.4016938              0.54568832082D-02
    186.29004992             0.40638409211D-01
     42.251176346            0.18025593888
     11.676557932            0.46315121755
      3.5930506482           0.44087173314
S    1   1.00
      0.40245147363          1.0000000
S    1   1.00
      0.13090182668          1.0000000
P    3   1.00
      9.4680970621           0.38387871728D-01
      2.0103545142           0.21117025112
      0.54771004707          0.51328172114
P    1   1.00
      0.15268613795          1.0000000
D    1   1.00
      0.8000000              1.0000000
****
N     0
S    5   1.00
   1712.8415853             -0.53934125305D-02
    257.64812677            -0.40221581118D-01
     58.458245853           -0.17931144990
     16.198367905           -0.46376317823
      5.0052600809          -0.44171422662
S    1   1.00
      0.58731856571          1.0000000
S    1   1.00
      0.18764592253          1.0000000
P    3   1.00
     13.571470233           -0.40072398852D-01
      2.9257372874          -0.21807045028
      0.79927750754         -0.51294466049
P    1   1.00
      0.21954348034          1.0000000
D    1   1.00
      1.0000000              1.0000000
****
O     0
S    5   1.00
   2266.1767785             -0.53431809926D-02
    340.87010191            -0.39890039230D-01
     77.363135167           -0.17853911985
     21.479644940           -0.46427684959
      6.6589433124          -0.44309745172
S    1   1.00
      0.80975975668          1.0000000
S    1   1.00
      0.25530772234          1.0000000
P    3   1.00
     17.721504317            0.43394573193D-01
      3.8635505440           0.23094120765
      1.0480920883           0.51375311064
P    1   1.00
      0.27641544411          1.0000000
D    1   1.00
      1.2000000              1.0000000
****
F     0
S    5   1.00
   2894.8325990             -0.53408255515D-02
    435.41939120            -0.39904258866D-01
     98.843328866           -0.17912768038
     27.485198001           -0.46758090825
      8.5405498171          -0.44653131020
S    1   1.00
      1.0654578038           1.0000000
S    1   1.00
      0.33247346748          1.0000000
P    3   1.00
     22.696633924           -0.45212874436D-01
      4.9872339257          -0.23754317067
      1.3491613954          -0.51287353587
P    1   1.00
      0.34829881977          1.0000000
D    1   1.00
      1.4000000              1.0000000
****
S     0
S    5   1.00
   9184.9303010             -0.22294387756D-02
   1381.5105503             -0.16683029937D-01
    313.87147580            -0.75262436116D-01
     88.053870623           -0.19376827038
     27.039914905           -0.17718020803
S    3   1.00
     45.648731303           -0.10736062573
      4.9664522326           0.65066293018
      2.0116242047           0.59712155354
S    1   1.00
      0.35661077013          1.0000000
S    1   1.00
      0.13507221477          1.0000000
P    5   1.00
    261.98233439            -0.92729929822D-02
     61.306894736           -0.66547669241D-01
     19.103729887           -0.24828595903
      6.6567720378          -0.48703847402
      2.3959635161          -0.39337850312
P    1   1.00
      0.61776161679          1.0000000
P    1   1.00
      0.16993376871          1.0000000
D    1   1.00
      0.5500000              1.0000000
****
Lu     0
S    5   1.00
  95169.767000               0.22000000000D-04
  15488.403000               0.14500000000D-03
   3776.2335000              0.65100000000D-03
   1079.0501000              0.20380000000D-02
    268.95380000             0.51270000000D-02
S    1   1.00
     63.467900000            1.0000000
S    1   1.00
     45.133200000            1.0000000
S    1   1.00
     21.456800000            1.0000000
S    1   1.00
      5.3483000000           1.0000000
S    1   1.00
      2.6778000000           1.0000000
S    1   1.00
      1.0287000000           1.0000000
S    1   1.00
      0.44080000000          1.0000000
S    1   1.00
      0.79100000000D-01      1.0000000
S    1   1.00
      0.31300000000D-01      1.0000000
P    3   1.00
     12.333733920           -0.15313031066
     11.080331415           -0.20300664852
      2.0341747228          -0.19458361263
P    6   1.00
   1500.5317313             -0.10192569555D-02
    382.39748937            -0.59476212135D-02
    132.99969628            -0.16265160929D-01
     46.110032419           -0.35623845839D-01
     15.583529011            0.23709171074
      5.7856677022          -0.30670977844
P    1   1.00
      3.7823361008           1.0000000
P    1   1.00
      1.3682592248           1.0000000
P    1   1.00
      0.57288205601          1.0000000
P    1   1.00
      0.22793165135          1.0000000
P    1   1.00
      0.81403917986D-01      1.0000000
P    1   1.00
      0.29091071778D-01      1.0000000
D    6   1.00
    484.52750000             0.22860000000D-02
    146.66550000             0.18629000000D-01
     56.377900000            0.74088000000D-01
     23.671100000            0.16155400000
      9.4401000000           0.30809100000
      4.3712000000           0.44833400000
D    1   1.00
      1.9580000000           1.0000000
D    1   1.00
      0.72720000000          1.0000000
D    1   1.00
      0.24600000000          1.0000000
D    1   1.00
      0.74400000000D-01      1.0000000
F    5   1.00
    175.15590000             0.41020000000D-02
     62.890900000            0.39086000000D-01
     28.362400000            0.14704400000
     13.247800000            0.27109200000
      6.1440000000           0.34566500000
F    1   1.00
      2.7623000000           1.0000000
F    1   1.00
      1.1574000000           1.0000000
F    1   1.00
      0.42440000000          1.0000000
G    1   1.00
      0.70090000000          1.0000000
****

Lu     0
Lu-ECP     5     28
h potential
  1
2      1.00000000             0.00000000
s-h potential
  1
2     35.16209700           989.99558400
p-h potential
  1
2     19.46440200           278.86565200
d-h potential
  1
2     10.00686500            71.00917800
f-h potential
  1
2     23.51793200           -47.40589000
g-h potential
  1
2     29.41223800           -35.55714600

