%chk=ts-min.chk
%mem=616Gb
%nprocshared=24
# irc=(maxpoints=100,recorrect=never,calcfc,maxcycles=500,nogradstop) UMN15/genecp scrf=(smd,solvent=DiChloroEthane)  

IRC for Going from i2 to i3, where we are forming bond 7-56

0 2
C                  1.66563900   -0.74680400   -0.74594000
 C                  1.55396600    0.18549000    0.48635600
 C                  0.31871300   -1.15152300   -1.39867600
 O                 -0.45270100   -0.24058700   -1.62598300
 O                  0.48251200    0.73886900    0.64908900
 O                 -2.97450400   -1.45760300   -0.66880200
 O                 -1.73133300   -0.34206200    2.32843800
 O                 -1.13308700    2.89171000   -0.88600300
 S                 -1.36572500    3.75779100    0.29546900
 S                 -3.50476000   -0.94957800   -1.95684800
 S                 -0.80132000   -1.49257500    2.29307700
 O                 -1.75020400    2.91620200    1.45331500
 O                 -2.14036300    4.96271400    0.07515800
 O                 -3.27521100    0.51023600   -2.05783100
 O                 -3.22904500   -1.74857500   -3.13646300
 O                 -0.45885100   -1.88931400    0.91269700
 O                  0.32028500   -1.44054400    3.22263000
 C                 -1.81999300   -2.89633600    2.89082200
 C                 -5.32229100   -1.05838800   -1.72318100
 C                  0.30110300    4.39507500    0.73317100
 F                 -1.11109400   -4.01507700    2.79068800
 F                 -2.91775700   -3.01361800    2.16502100
 F                 -2.15256800   -2.70974200    4.15781100
 F                 -5.67523500   -0.34171100   -0.66135700
 F                 -5.68440400   -2.31726000   -1.52902800
 F                 -5.95201900   -0.58616300   -2.78748100
 F                  1.11541300    3.41529200    1.09366700
 F                  0.19629600    5.25400100    1.73553100
 F                  0.82142700    5.02079600   -0.31597900
 C                  3.82913200   -0.21969100   -1.88254400
 C                  4.46247000   -1.63512000   -1.63516700
 C                  5.92996000   -1.64196200   -1.76085000
 C                  3.92116200   -2.52832400   -2.68470400
 C                  2.33475700   -2.93764000    1.15794700
 C                  4.59395400   -2.49381700    1.84286900
 C                  3.27276200   -2.92260600    2.15541200
 H                  1.31628800   -3.29091600    1.31648300
 H                  5.38413100   -2.47622500    2.59654500
 H                  3.03495600   -3.26074300    3.16437700
 N                  7.06976600   -1.64964500   -1.95211400
 N                  3.47966800   -3.20876900   -3.50846100
 N                  4.03105100   -2.14079200   -0.31544700
 N                  4.94732400   -2.10665900    0.64080500
 C                  2.70050500   -2.47537100   -0.14357100
 H                  2.23198600   -2.92931100   -1.02190400
 H                  4.01313000   -0.00137700   -2.94595800
 C                  4.27438800    0.96638400   -1.05698600
 C                  3.48323500    2.11930800   -1.19035800
 C                  5.40532600    0.99510000   -0.23309000
 C                  3.81869600    3.28412500   -0.50233400
 H                  2.59777300    2.10245000   -1.83254600
 C                  5.73097500    2.16360100    0.45979400
 H                  6.03737100    0.11763500   -0.09453600
 C                  4.94183900    3.30694900    0.32848700
 H                  3.19609900    4.17274300   -0.61223500
 H                  6.60999400    2.17368000    1.10721300
 H                  5.20299800    4.21793000    0.87109300
 Yb                -1.98822700    0.74432400    0.11915500
 O                  2.42606700   -0.45403200   -1.83139000
 C                  0.08703000   -2.53306900   -1.90592400
 H                 -0.90026600   -2.55066400   -2.38388400
 H                  0.85994200   -2.79488100   -2.64832400
 H                  0.11342400   -3.26301100   -1.08464000
 C                  2.61252800    0.35351000    1.52591800
 H                  2.17275100   -0.02549000    2.46326600
 H                  3.56151500   -0.14408700    1.32800300
 H                  2.79379200    1.43233900    1.65214000

H     0
S    3   1.00
     13.0107010              0.19682158D-01
      1.9622572              0.13796524
      0.44453796             0.47831935
S    1   1.00
      0.12194962             1.0000000
P    1   1.00
      0.8000000              1.0000000
****
C     0
S    5   1.00
   1238.4016938              0.54568832082D-02
    186.29004992             0.40638409211D-01
     42.251176346            0.18025593888
     11.676557932            0.46315121755
      3.5930506482           0.44087173314
S    1   1.00
      0.40245147363          1.0000000
S    1   1.00
      0.13090182668          1.0000000
P    3   1.00
      9.4680970621           0.38387871728D-01
      2.0103545142           0.21117025112
      0.54771004707          0.51328172114
P    1   1.00
      0.15268613795          1.0000000
D    1   1.00
      0.8000000              1.0000000
****
N     0
S    5   1.00
   1712.8415853             -0.53934125305D-02
    257.64812677            -0.40221581118D-01
     58.458245853           -0.17931144990
     16.198367905           -0.46376317823
      5.0052600809          -0.44171422662
S    1   1.00
      0.58731856571          1.0000000
S    1   1.00
      0.18764592253          1.0000000
P    3   1.00
     13.571470233           -0.40072398852D-01
      2.9257372874          -0.21807045028
      0.79927750754         -0.51294466049
P    1   1.00
      0.21954348034          1.0000000
D    1   1.00
      1.0000000              1.0000000
****
O     0
S    5   1.00
   2266.1767785             -0.53431809926D-02
    340.87010191            -0.39890039230D-01
     77.363135167           -0.17853911985
     21.479644940           -0.46427684959
      6.6589433124          -0.44309745172
S    1   1.00
      0.80975975668          1.0000000
S    1   1.00
      0.25530772234          1.0000000
P    3   1.00
     17.721504317            0.43394573193D-01
      3.8635505440           0.23094120765
      1.0480920883           0.51375311064
P    1   1.00
      0.27641544411          1.0000000
D    1   1.00
      1.2000000              1.0000000
****
F     0
S    5   1.00
   2894.8325990             -0.53408255515D-02
    435.41939120            -0.39904258866D-01
     98.843328866           -0.17912768038
     27.485198001           -0.46758090825
      8.5405498171          -0.44653131020
S    1   1.00
      1.0654578038           1.0000000
S    1   1.00
      0.33247346748          1.0000000
P    3   1.00
     22.696633924           -0.45212874436D-01
      4.9872339257          -0.23754317067
      1.3491613954          -0.51287353587
P    1   1.00
      0.34829881977          1.0000000
D    1   1.00
      1.4000000              1.0000000
****
S     0
S    5   1.00
   9184.9303010             -0.22294387756D-02
   1381.5105503             -0.16683029937D-01
    313.87147580            -0.75262436116D-01
     88.053870623           -0.19376827038
     27.039914905           -0.17718020803
S    3   1.00
     45.648731303           -0.10736062573
      4.9664522326           0.65066293018
      2.0116242047           0.59712155354
S    1   1.00
      0.35661077013          1.0000000
S    1   1.00
      0.13507221477          1.0000000
P    5   1.00
    261.98233439            -0.92729929822D-02
     61.306894736           -0.66547669241D-01
     19.103729887           -0.24828595903
      6.6567720378          -0.48703847402
      2.3959635161          -0.39337850312
P    1   1.00
      0.61776161679          1.0000000
P    1   1.00
      0.16993376871          1.0000000
D    1   1.00
      0.5500000              1.0000000
****
Yb     0
S    5   1.00
  91972.903000               0.51000000000D-04
  13787.371000               0.38600000000D-03
   3123.6135000              0.18440000000D-02
    871.47540000             0.53560000000D-02
    250.46300000             0.88590000000D-02
S    1   1.00
     58.282700000            1.0000000
S    1   1.00
     41.630500000            1.0000000
S    1   1.00
     20.216400000            1.0000000
S    1   1.00
      4.9972000000           1.0000000
S    1   1.00
      2.4822000000           1.0000000
S    1   1.00
      0.91790000000          1.0000000
S    1   1.00
      0.38530000000          1.0000000
S    1   1.00
      0.61400000000D-01      1.0000000
S    1   1.00
      0.25000000000D-01      1.0000000
P    3   1.00
     12.274108000           -0.15252141000
     10.695631000           -0.20243492000
      2.0359782000          -0.19621046000
P    6   1.00
   1497.5567000             -0.10182934000D-02
    375.04101000            -0.60919401000D-02
    128.69727000            -0.17077693000D-01
     45.270759000           -0.35655508000D-01
     14.906971000            0.23732226000
      5.6450858000          -0.30559689000
P    1   1.00
      3.6752106000           1.0000000
P    1   1.00
      1.3296961000           1.0000000
P    1   1.00
      0.55338966000          1.0000000
P    1   1.00
      0.22382350000          1.0000000
P    1   1.00
      0.68350467650D-01      1.0000000
P    1   1.00
      0.25355670803D-01      1.0000000
D    6   1.00
    469.76060000             0.19840000000D-02
    142.61280000             0.16013000000D-01
     55.126700000            0.63153000000D-01
     23.441500000            0.13780000000
      9.4951000000           0.28549800000
      4.5792000000           0.43830900000
D    1   1.00
      2.1646000000           1.0000000
D    1   1.00
      0.92380000000          1.0000000
D    1   1.00
      0.31070000000          1.0000000
D    1   1.00
      0.91400000000D-01      1.0000000
F    5   1.00
    142.02930000             0.59570000000D-02
     51.086200000            0.53180000000D-01
     22.874100000            0.17807600000
     10.502500000            0.30060000000
      4.7872000000           0.35034200000
F    1   1.00
      2.1088000000           1.0000000
F    1   1.00
      0.86090000000          1.0000000
F    1   1.00
      0.30600000000          1.0000000
G    1   1.00
      0.51330000000          1.0000000
****

Yb     0
Yb-ECP     5     28
h potential
  1
2      1.00000000             0.00000000
s-h potential
  1
2     32.42448400           891.01377700
p-h potential
  1
2     18.65623200           264.03695300
d-h potential
  1
2     10.49022200            73.92391900
f-h potential
  1
2     20.77418300           -39.59217300
g-h potential
  1
2     28.43102800           -34.63863800

































