%chk=i3-minor.chk
%mem=616Gb
%nprocshared=24
#P  MN15/gen scf=(maxcyc=500) freq scrf=(smd,solvent=DiChloroEthane)  

Opt

0 1
C                 -1.9741330000     -0.9104740000      0.8080930000
C                 -1.4723920000     -0.4629020000     -0.5766500000
C                 -0.8151670000     -1.3538060000      1.7288650000
O                  0.3023220000     -0.8565590000      1.6191140000
O                 -0.4883480000      0.2817360000     -0.6250560000
O                  3.0807560000     -1.3184680000      0.6809740000
O                  2.1688090000     -0.2338760000     -1.8368400000
O                  0.6072280000      2.0102110000      1.1928180000
S                  1.5624540000      2.9392040000      0.5192960000
S                  3.7245330000     -0.5585850000      1.8031470000
S                  1.6782540000     -1.6422380000     -2.0396870000
O                  2.3412480000      2.0549390000     -0.4156230000
O                  2.2885520000      3.8881980000      1.3188600000
O                  2.8400440000      0.6349300000      1.9610990000
O                  4.1195690000     -1.2867350000      2.9770110000
O                  0.9482610000     -1.9773930000     -0.7864430000
O                  1.0230870000     -1.9282920000     -3.2919750000
C                  3.2368960000     -2.6798920000     -2.0230020000
C                  5.2596680000      0.0944430000      1.0229140000
C                  0.5290070000      3.9154620000     -0.6473230000
F                  3.1339890000     -3.6076080000     -1.0950210000
F                  4.2875700000     -1.9207510000     -1.7904950000
F                  3.3623380000     -3.2512410000     -3.2053570000
F                  4.9361340000      0.7054870000     -0.1016300000
F                  6.0692260000     -0.9138110000      0.7653710000
F                  5.8441900000      0.9441450000      1.8426580000
F                 -0.0267120000      3.0947560000     -1.5175410000
F                  1.2942880000      4.7832280000     -1.2785040000
F                 -0.4076820000      4.5581510000      0.0284790000
C                 -3.8675210000      0.8334890000      1.0636310000
C                 -4.8480320000     -0.3628520000      1.1534860000
C                 -6.2167240000      0.0304920000      0.7493240000
C                 -4.9479710000     -0.8014740000      2.5789420000
C                 -2.7007840000     -3.2002480000     -0.0519160000
C                 -5.0596890000     -3.5359040000     -0.3487560000
C                 -3.6767270000     -3.9565550000     -0.5686970000
H                 -1.6387840000     -3.4388950000     -0.1764610000
H                 -5.8922380000     -4.2040950000     -0.5853110000
H                 -3.4725450000     -4.8607260000     -1.1439160000
N                 -7.2853990000      0.3987260000      0.5030860000
N                 -4.9433720000     -1.1950540000      3.6681580000
N                 -4.3595820000     -1.4693330000      0.3385860000
N                 -5.3707810000     -2.3676150000      0.0838860000
C                 -3.0682860000     -2.0000600000      0.7867220000
H                 -3.1889870000     -2.3412940000      1.8359240000
C                 -2.4952710000      0.3594360000      1.5555830000
H                 -1.7457150000      1.1581470000      1.4530330000
H                 -2.5678600000      0.1204380000      2.6288870000
Sc                 1.5020650000      0.1481590000      0.1853060000
H                 -4.2160430000      1.5749110000      1.8002620000
C                 -3.8404990000      1.5232680000     -0.2945670000
C                 -3.1033290000      2.7158640000     -0.3810450000
C                 -4.5278090000      1.0803660000     -1.4337650000
C                 -3.0633370000      3.4506160000     -1.5647300000
H                 -2.5625590000      3.0781840000      0.4984820000
C                 -4.4863090000      1.8162410000     -2.6211760000
H                 -5.0919790000      0.1465260000     -1.4251590000
C                 -3.7567600000      3.0023220000     -2.6921570000
H                 -2.4907280000      4.3791100000     -1.6057560000
H                 -5.0302800000      1.4518980000     -3.4952960000
H                 -3.7286120000      3.5776340000     -3.6200470000
C                 -1.0597500000     -2.3139190000      2.8421280000
H                 -0.1606330000     -2.3616090000      3.4660650000
H                 -1.9311580000     -2.0133850000      3.4450660000
H                 -1.2745410000     -3.3133840000      2.4290470000
C                 -2.0632520000     -0.9126120000     -1.8635300000
H                 -3.0980910000     -1.2561140000     -1.8024990000
H                 -1.9420610000     -0.1048110000     -2.5984950000
H                 -1.4237420000     -1.7535520000     -2.1927660000

H     0
S    3   1.00
     13.0107010              0.19682158D-01
      1.9622572              0.13796524
      0.44453796             0.47831935
S    1   1.00
      0.12194962             1.0000000
P    1   1.00
      0.8000000              1.0000000
****
C     0
S    5   1.00
   1238.4016938              0.54568832082D-02
    186.29004992             0.40638409211D-01
     42.251176346            0.18025593888
     11.676557932            0.46315121755
      3.5930506482           0.44087173314
S    1   1.00
      0.40245147363          1.0000000
S    1   1.00
      0.13090182668          1.0000000
P    3   1.00
      9.4680970621           0.38387871728D-01
      2.0103545142           0.21117025112
      0.54771004707          0.51328172114
P    1   1.00
      0.15268613795          1.0000000
D    1   1.00
      0.8000000              1.0000000
****
N     0
S    5   1.00
   1712.8415853             -0.53934125305D-02
    257.64812677            -0.40221581118D-01
     58.458245853           -0.17931144990
     16.198367905           -0.46376317823
      5.0052600809          -0.44171422662
S    1   1.00
      0.58731856571          1.0000000
S    1   1.00
      0.18764592253          1.0000000
P    3   1.00
     13.571470233           -0.40072398852D-01
      2.9257372874          -0.21807045028
      0.79927750754         -0.51294466049
P    1   1.00
      0.21954348034          1.0000000
D    1   1.00
      1.0000000              1.0000000
****
O     0
S    5   1.00
   2266.1767785             -0.53431809926D-02
    340.87010191            -0.39890039230D-01
     77.363135167           -0.17853911985
     21.479644940           -0.46427684959
      6.6589433124          -0.44309745172
S    1   1.00
      0.80975975668          1.0000000
S    1   1.00
      0.25530772234          1.0000000
P    3   1.00
     17.721504317            0.43394573193D-01
      3.8635505440           0.23094120765
      1.0480920883           0.51375311064
P    1   1.00
      0.27641544411          1.0000000
D    1   1.00
      1.2000000              1.0000000
****
F     0
S    5   1.00
   2894.8325990             -0.53408255515D-02
    435.41939120            -0.39904258866D-01
     98.843328866           -0.17912768038
     27.485198001           -0.46758090825
      8.5405498171          -0.44653131020
S    1   1.00
      1.0654578038           1.0000000
S    1   1.00
      0.33247346748          1.0000000
P    3   1.00
     22.696633924           -0.45212874436D-01
      4.9872339257          -0.23754317067
      1.3491613954          -0.51287353587
P    1   1.00
      0.34829881977          1.0000000
D    1   1.00
      1.4000000              1.0000000
****
S     0
S    5   1.00
   9184.9303010             -0.22294387756D-02
   1381.5105503             -0.16683029937D-01
    313.87147580            -0.75262436116D-01
     88.053870623           -0.19376827038
     27.039914905           -0.17718020803
S    3   1.00
     45.648731303           -0.10736062573
      4.9664522326           0.65066293018
      2.0116242047           0.59712155354
S    1   1.00
      0.35661077013          1.0000000
S    1   1.00
      0.13507221477          1.0000000
P    5   1.00
    261.98233439            -0.92729929822D-02
     61.306894736           -0.66547669241D-01
     19.103729887           -0.24828595903
      6.6567720378          -0.48703847402
      2.3959635161          -0.39337850312
P    1   1.00
      0.61776161679          1.0000000
P    1   1.00
      0.16993376871          1.0000000
D    1   1.00
      0.5500000              1.0000000
****
Sc     0
S    8   1.00
 191612.9187400              0.23076475942D-03
  28723.8503630              0.17890329946D-02
   6537.0116490              0.92990401140D-02
   1850.3097171              0.37739438011D-01
    602.38855156             0.12227148359
    216.17324766             0.28814821470
     83.712517880            0.40517543099
     32.908707189            0.20566019623
S    4   1.00
    211.34393234            -0.24527991462D-01
     65.128920139           -0.11570158142
     10.034311535            0.55995283317
      4.1596884597           0.56087765073
S    2   1.00
      6.0009041613          -0.22840494325
      0.98255784150          0.71948970378
S    1   1.00
      0.42483192773          1.0000000
S    1   1.00
      0.77185462096D-01      1.0000000
S    1   1.00
      0.30147219702D-01      1.0000000
P    6   1.00
    947.34122823             0.24737208744D-02
    224.09699732             0.19742967060D-01
     71.560334882            0.90357147549D-01
     26.444824490            0.25201602503
     10.393798285            0.39675535929
      4.1606304559           0.23208624517
P    3   1.00
     15.565737135           -0.27129423974D-01
      2.1121544865           0.55109256629
      0.84184709021          1.0090635806
P    1   1.00
      0.32297542652          1.0000000
P    1   1.00
      0.0897480              1.0000000
D    4   1.00
     30.989390993            0.11902837431D-01
      8.6905465069           0.67655856850D-01
      2.9520256337           0.21332539722
      1.0761910745           0.38391075578
D    1   1.00
      0.38338915095           .43354716259
D    1   1.00
      0.12534686113           .24509263822
D    1   1.00
      0.0410000              1.0000000
F    1   1.00
      0.3450000              1.0000000
****





























































