%chk=ts-min.chk
%mem=616Gb
%nprocshared=24
#opt=(ts,noeigentest,calcfc) freq  MN15/gen scf=(maxcyc=500) scrf=(smd,solvent=DiChloroEthane) 

ts opt for i3 Going from i2 to i3, where we are forming bond 1-54

0 1
C                 -1.7229050000     -0.1867200000      1.1293920000
C                 -1.3593820000     -0.0456230000     -0.2793670000
C                 -0.5983990000     -0.2672170000      2.0581600000
O                  0.5759220000     -0.5449990000      1.7277430000
O                 -0.2154940000      0.0940690000     -0.7465860000
O                 -2.3735570000     -0.1728360000     -1.0917500000
O                 -0.8984740000     -0.1561740000      3.3259360000
C                 -2.1265670000     -0.1610950000     -2.5032680000
C                  0.1690950000     -0.2696160000      4.2781450000
H                 -3.0596210000     -0.4767020000     -2.9814490000
H                 -1.3092430000     -0.8544080000     -2.7459030000
H                 -1.8593250000      0.8539480000     -2.8241510000
H                 -0.2787820000     -0.0815070000      5.2585420000
H                  0.9451610000      0.4756670000      4.0577760000
H                  0.6031880000     -1.2772120000      4.2403380000
O                  3.5144430000     -0.8725250000      0.8834820000
O                  2.4560810000     -0.3302790000     -1.8293660000
O                  0.4596310000      2.0719950000      1.0318970000
S                  0.9703280000      2.9808330000     -0.0277360000
S                  4.1044860000      0.2659690000      1.6579870000
S                  2.1601690000     -1.8025600000     -1.7907200000
O                  1.8733410000      2.1338130000     -0.8748420000
O                  1.4523560000      4.2828700000      0.3527250000
O                  3.0470710000      1.3210040000      1.5933850000
O                  4.7205480000     -0.0172340000      2.9250470000
O                  1.5193780000     -2.0278800000     -0.4685110000
O                  1.5285890000     -2.3783490000     -2.9529670000
C                  3.8464360000     -2.6008820000     -1.6686940000
C                  5.4110760000      0.8937710000      0.5241470000
C                 -0.5061790000      3.2925160000     -1.1388520000
F                  3.8747330000     -3.4041670000     -0.6247530000
F                  4.7793160000     -1.6772550000     -1.5482760000
F                  4.0620320000     -3.2991830000     -2.7676260000
F                  4.8451470000      1.1729500000     -0.6378060000
F                  6.3323990000     -0.0344880000      0.3607980000
F                  5.9543510000      1.9824870000      1.0298900000
F                 -1.5925470000      2.7416800000     -0.6093980000
F                 -0.2923790000      2.7664460000     -2.3292230000
F                 -0.6956350000      4.5896690000     -1.2545410000
C                 -4.3970010000      0.1253970000      1.1573460000
C                 -4.6180280000     -1.4196100000      1.2232000000
C                 -5.9404830000     -1.8278120000      0.7027440000
C                 -4.6159600000     -1.7969470000      2.6607820000
C                 -1.2763400000     -2.8967640000      0.4148750000
C                 -2.8962270000     -3.2433310000     -1.3349950000
C                 -1.5557640000     -3.3817660000     -0.8186700000
H                 -0.2915280000     -2.9991190000      0.8719840000
H                 -3.1725300000     -3.6460750000     -2.3118740000
H                 -0.7984500000     -3.8998190000     -1.4093540000
N                 -7.0109670000     -2.1224480000      0.3787310000
N                 -4.6084480000     -2.0621380000      3.7850820000
N                 -3.5482830000     -2.1781790000      0.5533870000
N                 -3.8399870000     -2.6612450000     -0.6668910000
C                 -2.2908260000     -2.1454710000      1.1275390000
H                 -2.2941370000     -2.1801500000      2.2238900000
C                 -2.9803720000      0.4931770000      1.6692590000
H                 -2.8704280000      1.5823820000      1.5530170000
H                 -2.9803150000      0.3052770000      2.7515720000
Sc                 1.7010040000      0.2150410000      0.1511600000
H                 -5.0548640000      0.5066230000      1.9558700000
C                 -4.8610200000      0.8617850000     -0.0927300000
C                 -4.9639220000      2.2562350000      0.0218060000
C                 -5.2075470000      0.2672210000     -1.3109880000
C                 -5.3849680000      3.0384360000     -1.0535290000
H                 -4.7166860000      2.7396800000      0.9719190000
C                 -5.6391710000      1.0478020000     -2.3872500000
H                 -5.1140690000     -0.8114270000     -1.4497230000
C                 -5.7262370000      2.4349100000     -2.2663180000
H                 -5.4550750000      4.1224750000     -0.9391320000
H                 -5.9012870000      0.5609150000     -3.3295300000
H                 -6.0603050000      3.0423720000     -3.1103470000

H     0
S    3   1.00
     13.0107010              0.19682158D-01
      1.9622572              0.13796524
      0.44453796             0.47831935
S    1   1.00
      0.12194962             1.0000000
P    1   1.00
      0.8000000              1.0000000
****
C     0
S    5   1.00
   1238.4016938              0.54568832082D-02
    186.29004992             0.40638409211D-01
     42.251176346            0.18025593888
     11.676557932            0.46315121755
      3.5930506482           0.44087173314
S    1   1.00
      0.40245147363          1.0000000
S    1   1.00
      0.13090182668          1.0000000
P    3   1.00
      9.4680970621           0.38387871728D-01
      2.0103545142           0.21117025112
      0.54771004707          0.51328172114
P    1   1.00
      0.15268613795          1.0000000
D    1   1.00
      0.8000000              1.0000000
****
N     0
S    5   1.00
   1712.8415853             -0.53934125305D-02
    257.64812677            -0.40221581118D-01
     58.458245853           -0.17931144990
     16.198367905           -0.46376317823
      5.0052600809          -0.44171422662
S    1   1.00
      0.58731856571          1.0000000
S    1   1.00
      0.18764592253          1.0000000
P    3   1.00
     13.571470233           -0.40072398852D-01
      2.9257372874          -0.21807045028
      0.79927750754         -0.51294466049
P    1   1.00
      0.21954348034          1.0000000
D    1   1.00
      1.0000000              1.0000000
****
O     0
S    5   1.00
   2266.1767785             -0.53431809926D-02
    340.87010191            -0.39890039230D-01
     77.363135167           -0.17853911985
     21.479644940           -0.46427684959
      6.6589433124          -0.44309745172
S    1   1.00
      0.80975975668          1.0000000
S    1   1.00
      0.25530772234          1.0000000
P    3   1.00
     17.721504317            0.43394573193D-01
      3.8635505440           0.23094120765
      1.0480920883           0.51375311064
P    1   1.00
      0.27641544411          1.0000000
D    1   1.00
      1.2000000              1.0000000
****
F     0
S    5   1.00
   2894.8325990             -0.53408255515D-02
    435.41939120            -0.39904258866D-01
     98.843328866           -0.17912768038
     27.485198001           -0.46758090825
      8.5405498171          -0.44653131020
S    1   1.00
      1.0654578038           1.0000000
S    1   1.00
      0.33247346748          1.0000000
P    3   1.00
     22.696633924           -0.45212874436D-01
      4.9872339257          -0.23754317067
      1.3491613954          -0.51287353587
P    1   1.00
      0.34829881977          1.0000000
D    1   1.00
      1.4000000              1.0000000
****
S     0
S    5   1.00
   9184.9303010             -0.22294387756D-02
   1381.5105503             -0.16683029937D-01
    313.87147580            -0.75262436116D-01
     88.053870623           -0.19376827038
     27.039914905           -0.17718020803
S    3   1.00
     45.648731303           -0.10736062573
      4.9664522326           0.65066293018
      2.0116242047           0.59712155354
S    1   1.00
      0.35661077013          1.0000000
S    1   1.00
      0.13507221477          1.0000000
P    5   1.00
    261.98233439            -0.92729929822D-02
     61.306894736           -0.66547669241D-01
     19.103729887           -0.24828595903
      6.6567720378          -0.48703847402
      2.3959635161          -0.39337850312
P    1   1.00
      0.61776161679          1.0000000
P    1   1.00
      0.16993376871          1.0000000
D    1   1.00
      0.5500000              1.0000000
****
Sc     0
S    8   1.00
 191612.9187400              0.23076475942D-03
  28723.8503630              0.17890329946D-02
   6537.0116490              0.92990401140D-02
   1850.3097171              0.37739438011D-01
    602.38855156             0.12227148359
    216.17324766             0.28814821470
     83.712517880            0.40517543099
     32.908707189            0.20566019623
S    4   1.00
    211.34393234            -0.24527991462D-01
     65.128920139           -0.11570158142
     10.034311535            0.55995283317
      4.1596884597           0.56087765073
S    2   1.00
      6.0009041613          -0.22840494325
      0.98255784150          0.71948970378
S    1   1.00
      0.42483192773          1.0000000
S    1   1.00
      0.77185462096D-01      1.0000000
S    1   1.00
      0.30147219702D-01      1.0000000
P    6   1.00
    947.34122823             0.24737208744D-02
    224.09699732             0.19742967060D-01
     71.560334882            0.90357147549D-01
     26.444824490            0.25201602503
     10.393798285            0.39675535929
      4.1606304559           0.23208624517
P    3   1.00
     15.565737135           -0.27129423974D-01
      2.1121544865           0.55109256629
      0.84184709021          1.0090635806
P    1   1.00
      0.32297542652          1.0000000
P    1   1.00
      0.0897480              1.0000000
D    4   1.00
     30.989390993            0.11902837431D-01
      8.6905465069           0.67655856850D-01
      2.9520256337           0.21332539722
      1.0761910745           0.38391075578
D    1   1.00
      0.38338915095           .43354716259
D    1   1.00
      0.12534686113           .24509263822
D    1   1.00
      0.0410000              1.0000000
F    1   1.00
      0.3450000              1.0000000
****











