%chk=TS-min.chk
%mem=92Gb
%nprocshared=24
#P UMN15/genecp scf=(maxcyc=500) opt=(TS,tight,noeigentest,calcFC) freq scrf=(smd,solvent=DiChloroEthane)  

Opt

0 1
 C                 -1.99806400   -0.02307100    1.05486600
 C                 -1.61285600   -0.03397600   -0.32937800
 C                 -0.98480400   -0.13545100    2.07277700
 O                  0.22513100   -0.39348100    1.86498700
 O                 -0.43862800   -0.11848800   -0.74474600
 O                 -2.61110300   -0.13386400   -1.17617300
 O                 -1.44734400   -0.07929900    3.30020100
 C                 -2.34618400   -0.24917700   -2.57580700
 C                 -0.51327800   -0.23828000    4.37174100
 H                 -3.28839300   -0.57018400   -3.03554100
 H                 -1.55315900   -0.98865300   -2.75652900
 H                 -2.04344800    0.72359200   -2.98528700
 H                 -1.09570700   -0.15915300    5.29514200
 H                  0.24727100    0.55326900    4.33262900
 H                 -0.02382700   -1.21952100    4.31282800
 O                  3.32284100   -0.88683500    1.27023800
 O                  2.19016600   -0.64343900   -1.85747400
 O                  0.36990300    2.17257500    0.86779000
 S                  0.95840900    3.03769800   -0.19436500
 S                  4.03092600    0.34390900    1.74315500
 S                  1.80550300   -2.07866300   -1.66470700
 O                  1.72204500    2.11287100   -1.09059600
 O                  1.60022100    4.26436800    0.20258500
 O                  3.08019000    1.46251700    1.46355100
 O                  4.68854700    0.30553400    3.02019600
 O                  1.39562100   -2.20963200   -0.24134400
 O                  0.95213400   -2.67566100   -2.66596400
 C                  3.41296100   -2.97181800   -1.77702100
 C                  5.31711600    0.56375500    0.44691100
 C                 -0.49741400    3.56995600   -1.19158100
 F                  3.26035700   -4.19209900   -1.29588800
 F                  4.33132900   -2.33066500   -1.07917800
 F                  3.78385100   -3.03703400   -3.04194400
 F                  4.68982500    0.65721900   -0.72024100
 F                  6.12200200   -0.47912600    0.43162400
 F                  6.00831700    1.66225100    0.66864600
 F                 -1.12121700    2.51618700   -1.69335600
 F                 -0.09533900    4.35056500   -2.17484600
 F                 -1.33136300    4.23307900   -0.40903500
 C                 -4.51577400    0.26384100    1.13091200
 C                 -4.81658500   -1.25339300    1.36344000
 C                 -6.20370900   -1.64916000    1.05963100
 C                 -4.61313400   -1.49441300    2.81173900
 C                 -1.66088500   -2.91635000    0.26184600
 C                 -3.43184600   -3.11997900   -1.35675400
 C                 -2.07087200   -3.34154000   -0.96957900
 H                 -0.64750600   -3.07737400    0.63221000
 H                 -3.81528600   -3.47194700   -2.31655200
 H                 -1.39137100   -3.86544500   -1.64378600
 N                 -7.31141600   -1.93788400    0.89722700
 N                 -4.46807600   -1.65577000    3.94731400
 N                 -3.85519000   -2.08255500    0.60102000
 N                 -4.28381300   -2.49650000   -0.59369100
 C                 -2.58564600   -2.19318100    1.06730200
 H                 -2.45434100   -2.09727200    2.14696100
 H                 -5.11232000    0.77041000    1.90733600
 C                 -4.86353500    0.92475900   -0.19464400
 C                 -4.30370200    2.19930400   -0.37910000
 C                 -5.65719200    0.37714200   -1.20544400
 C                 -4.50849600    2.90054700   -1.56433400
 H                 -3.66951600    2.62520600    0.40241800
 C                 -5.87177900    1.09018500   -2.39071900
 H                 -6.09828700   -0.61465500   -1.11323000
 C                 -5.29399300    2.34499100   -2.57972500
 H                 -4.04632200    3.88170800   -1.69678700
 H                 -6.48923200    0.64655300   -3.17498200
 H                 -5.45572700    2.89020700   -3.51221200
 Lu                 1.54386000    0.17911200    0.19924800
 O                 -3.18430200    0.51116500    1.53873200

H     0
S    3   1.00
     13.0107010              0.19682158D-01
      1.9622572              0.13796524
      0.44453796             0.47831935
S    1   1.00
      0.12194962             1.0000000
P    1   1.00
      0.8000000              1.0000000
****
C     0
S    5   1.00
   1238.4016938              0.54568832082D-02
    186.29004992             0.40638409211D-01
     42.251176346            0.18025593888
     11.676557932            0.46315121755
      3.5930506482           0.44087173314
S    1   1.00
      0.40245147363          1.0000000
S    1   1.00
      0.13090182668          1.0000000
P    3   1.00
      9.4680970621           0.38387871728D-01
      2.0103545142           0.21117025112
      0.54771004707          0.51328172114
P    1   1.00
      0.15268613795          1.0000000
D    1   1.00
      0.8000000              1.0000000
****
N     0
S    5   1.00
   1712.8415853             -0.53934125305D-02
    257.64812677            -0.40221581118D-01
     58.458245853           -0.17931144990
     16.198367905           -0.46376317823
      5.0052600809          -0.44171422662
S    1   1.00
      0.58731856571          1.0000000
S    1   1.00
      0.18764592253          1.0000000
P    3   1.00
     13.571470233           -0.40072398852D-01
      2.9257372874          -0.21807045028
      0.79927750754         -0.51294466049
P    1   1.00
      0.21954348034          1.0000000
D    1   1.00
      1.0000000              1.0000000
****
O     0
S    5   1.00
   2266.1767785             -0.53431809926D-02
    340.87010191            -0.39890039230D-01
     77.363135167           -0.17853911985
     21.479644940           -0.46427684959
      6.6589433124          -0.44309745172
S    1   1.00
      0.80975975668          1.0000000
S    1   1.00
      0.25530772234          1.0000000
P    3   1.00
     17.721504317            0.43394573193D-01
      3.8635505440           0.23094120765
      1.0480920883           0.51375311064
P    1   1.00
      0.27641544411          1.0000000
D    1   1.00
      1.2000000              1.0000000
****
F     0
S    5   1.00
   2894.8325990             -0.53408255515D-02
    435.41939120            -0.39904258866D-01
     98.843328866           -0.17912768038
     27.485198001           -0.46758090825
      8.5405498171          -0.44653131020
S    1   1.00
      1.0654578038           1.0000000
S    1   1.00
      0.33247346748          1.0000000
P    3   1.00
     22.696633924           -0.45212874436D-01
      4.9872339257          -0.23754317067
      1.3491613954          -0.51287353587
P    1   1.00
      0.34829881977          1.0000000
D    1   1.00
      1.4000000              1.0000000
****
S     0
S    5   1.00
   9184.9303010             -0.22294387756D-02
   1381.5105503             -0.16683029937D-01
    313.87147580            -0.75262436116D-01
     88.053870623           -0.19376827038
     27.039914905           -0.17718020803
S    3   1.00
     45.648731303           -0.10736062573
      4.9664522326           0.65066293018
      2.0116242047           0.59712155354
S    1   1.00
      0.35661077013          1.0000000
S    1   1.00
      0.13507221477          1.0000000
P    5   1.00
    261.98233439            -0.92729929822D-02
     61.306894736           -0.66547669241D-01
     19.103729887           -0.24828595903
      6.6567720378          -0.48703847402
      2.3959635161          -0.39337850312
P    1   1.00
      0.61776161679          1.0000000
P    1   1.00
      0.16993376871          1.0000000
D    1   1.00
      0.5500000              1.0000000
****
Lu     0
S    5   1.00
  95169.767000               0.22000000000D-04
  15488.403000               0.14500000000D-03
   3776.2335000              0.65100000000D-03
   1079.0501000              0.20380000000D-02
    268.95380000             0.51270000000D-02
S    1   1.00
     63.467900000            1.0000000
S    1   1.00
     45.133200000            1.0000000
S    1   1.00
     21.456800000            1.0000000
S    1   1.00
      5.3483000000           1.0000000
S    1   1.00
      2.6778000000           1.0000000
S    1   1.00
      1.0287000000           1.0000000
S    1   1.00
      0.44080000000          1.0000000
S    1   1.00
      0.79100000000D-01      1.0000000
S    1   1.00
      0.31300000000D-01      1.0000000
P    3   1.00
     12.333733920           -0.15313031066
     11.080331415           -0.20300664852
      2.0341747228          -0.19458361263
P    6   1.00
   1500.5317313             -0.10192569555D-02
    382.39748937            -0.59476212135D-02
    132.99969628            -0.16265160929D-01
     46.110032419           -0.35623845839D-01
     15.583529011            0.23709171074
      5.7856677022          -0.30670977844
P    1   1.00
      3.7823361008           1.0000000
P    1   1.00
      1.3682592248           1.0000000
P    1   1.00
      0.57288205601          1.0000000
P    1   1.00
      0.22793165135          1.0000000
P    1   1.00
      0.81403917986D-01      1.0000000
P    1   1.00
      0.29091071778D-01      1.0000000
D    6   1.00
    484.52750000             0.22860000000D-02
    146.66550000             0.18629000000D-01
     56.377900000            0.74088000000D-01
     23.671100000            0.16155400000
      9.4401000000           0.30809100000
      4.3712000000           0.44833400000
D    1   1.00
      1.9580000000           1.0000000
D    1   1.00
      0.72720000000          1.0000000
D    1   1.00
      0.24600000000          1.0000000
D    1   1.00
      0.74400000000D-01      1.0000000
F    5   1.00
    175.15590000             0.41020000000D-02
     62.890900000            0.39086000000D-01
     28.362400000            0.14704400000
     13.247800000            0.27109200000
      6.1440000000           0.34566500000
F    1   1.00
      2.7623000000           1.0000000
F    1   1.00
      1.1574000000           1.0000000
F    1   1.00
      0.42440000000          1.0000000
G    1   1.00
      0.70090000000          1.0000000
****

Lu     0
Lu-ECP     5     28
h potential
  1
2      1.00000000             0.00000000
s-h potential
  1
2     35.16209700           989.99558400
p-h potential
  1
2     19.46440200           278.86565200
d-h potential
  1
2     10.00686500            71.00917800
f-h potential
  1
2     23.51793200           -47.40589000
g-h potential
  1
2     29.41223800           -35.55714600


