%chk=i3-minor.chk
%mem=616Gb
%nprocshared=24
#P UMN15/genecp scf=(maxcyc=500) opt=modred scrf=(smd,solvent=DiChloroEthane)  

Opt

0 1
 C                  2.21209700   -1.01047700   -0.68943700
 C                  1.83450200   -0.16479200    0.54828600
 C                  0.93933000   -1.69216800   -1.21250600
 O                 -0.03556100   -1.02090700   -1.54975800
 O                  0.75613900    0.42070300    0.63769400
 O                  2.74299300   -0.10364300    1.45883000
 O                  0.99043900   -2.97355300   -1.32359800
 C                  2.49831700    0.73410400    2.60617400
 C                 -0.19540900   -3.64069300   -1.80940800
 H                  3.44466300    0.77785000    3.15357800
 H                  1.71000600    0.27486800    3.21637900
 H                  2.18817400    1.73138000    2.26722900
 H                  0.02604800   -4.71067200   -1.77279600
 H                 -0.39772400   -3.31541600   -2.83772500
 H                 -1.04157900   -3.38851900   -1.15609900
 O                 -3.00041900   -1.41477000   -0.57202700
 O                 -1.70468500   -0.16864900    2.11918000
 O                 -0.83568200    2.27305400   -0.85374200
 S                 -2.02651300    2.94633600   -0.24476100
 S                 -3.31945900   -0.97517300   -1.97344700
 S                 -0.97647400   -1.46312200    2.33286600
 O                 -2.81791000    1.83792400    0.38276800
 O                 -2.72760700    3.92752900   -1.02480100
 O                 -2.51876100    0.27022700   -2.17372800
 O                 -3.27873300   -1.98234100   -3.00068400
 O                 -0.60325500   -1.94377400    0.97113000
 O                  0.05411600   -1.48051200    3.34297800
 C                 -2.27794200   -2.62856400    2.91279500
 C                 -5.06526000   -0.40114500   -1.87408100
 C                 -1.33329200    3.81145300    1.22821900
 F                 -1.77026400   -3.84603600    2.93506800
 F                 -3.30753400   -2.58755400    2.09403900
 F                 -2.65285600   -2.27705700    4.12641000
 F                 -5.18394600    0.48266400   -0.90402000
 F                 -5.83871700   -1.44106000   -1.62957300
 F                 -5.40053600    0.14704500   -3.02488900
 F                 -0.50637800    2.98417400    1.84963000
 F                 -2.31744400    4.14467000    2.03763400
 F                 -0.68305200    4.89431900    0.84887500
 C                  3.73620900    0.58852000   -1.75798500
 C                  4.88857600   -0.44230700   -1.57399500
 C                  6.22099900    0.18980800   -1.53598000
 C                  4.88282000   -1.32126700   -2.78051500
 C                  3.25135100   -2.88537700    0.76653900
 C                  5.29643100   -1.92560200    1.65264600
 C                  4.16724000   -2.84643300    1.74426000
 H                  2.39970100   -3.56827100    0.79569400
 H                  6.03056300   -1.85289200    2.45824800
 H                  4.08872000   -3.50065000    2.61405000
 N                  7.25785100    0.69735200   -1.60497100
 N                  4.86848600   -2.01227500   -3.70837200
 N                  4.62459000   -1.24830200   -0.40031300
 N                  5.49902600   -1.18439800    0.62081700
 C                  3.37488000   -2.00311200   -0.44490800
 H                  3.37424700   -2.63578200   -1.35509500
 H                  3.80977900    0.99715900   -2.77678200
 C                  3.66329700    1.74456900   -0.77621100
 C                  2.55114000    2.58554900   -0.93520900
 C                  4.59252700    2.02344200    0.23427100
 C                  2.37777100    3.69881300   -0.11443200
 H                  1.81114300    2.35852100   -1.70721800
 C                  4.42839100    3.15318800    1.04117100
 H                  5.43838800    1.36174900    0.42752500
 C                  3.32796100    3.99477900    0.86707600
 H                  1.50486200    4.33868000   -0.25274200
 H                  5.16413100    3.36523400    1.81987400
 H                  3.20420800    4.87410600    1.50312700
 Lu                -1.36620100    0.13094300   -0.12989500
 O                  2.52509200   -0.16426100   -1.78155900

1 54 S 10 +0.1

H     0
S    3   1.00
     13.0107010              0.19682158D-01
      1.9622572              0.13796524
      0.44453796             0.47831935
S    1   1.00
      0.12194962             1.0000000
P    1   1.00
      0.8000000              1.0000000
****
C     0
S    5   1.00
   1238.4016938              0.54568832082D-02
    186.29004992             0.40638409211D-01
     42.251176346            0.18025593888
     11.676557932            0.46315121755
      3.5930506482           0.44087173314
S    1   1.00
      0.40245147363          1.0000000
S    1   1.00
      0.13090182668          1.0000000
P    3   1.00
      9.4680970621           0.38387871728D-01
      2.0103545142           0.21117025112
      0.54771004707          0.51328172114
P    1   1.00
      0.15268613795          1.0000000
D    1   1.00
      0.8000000              1.0000000
****
N     0
S    5   1.00
   1712.8415853             -0.53934125305D-02
    257.64812677            -0.40221581118D-01
     58.458245853           -0.17931144990
     16.198367905           -0.46376317823
      5.0052600809          -0.44171422662
S    1   1.00
      0.58731856571          1.0000000
S    1   1.00
      0.18764592253          1.0000000
P    3   1.00
     13.571470233           -0.40072398852D-01
      2.9257372874          -0.21807045028
      0.79927750754         -0.51294466049
P    1   1.00
      0.21954348034          1.0000000
D    1   1.00
      1.0000000              1.0000000
****
O     0
S    5   1.00
   2266.1767785             -0.53431809926D-02
    340.87010191            -0.39890039230D-01
     77.363135167           -0.17853911985
     21.479644940           -0.46427684959
      6.6589433124          -0.44309745172
S    1   1.00
      0.80975975668          1.0000000
S    1   1.00
      0.25530772234          1.0000000
P    3   1.00
     17.721504317            0.43394573193D-01
      3.8635505440           0.23094120765
      1.0480920883           0.51375311064
P    1   1.00
      0.27641544411          1.0000000
D    1   1.00
      1.2000000              1.0000000
****
F     0
S    5   1.00
   2894.8325990             -0.53408255515D-02
    435.41939120            -0.39904258866D-01
     98.843328866           -0.17912768038
     27.485198001           -0.46758090825
      8.5405498171          -0.44653131020
S    1   1.00
      1.0654578038           1.0000000
S    1   1.00
      0.33247346748          1.0000000
P    3   1.00
     22.696633924           -0.45212874436D-01
      4.9872339257          -0.23754317067
      1.3491613954          -0.51287353587
P    1   1.00
      0.34829881977          1.0000000
D    1   1.00
      1.4000000              1.0000000
****
S     0
S    5   1.00
   9184.9303010             -0.22294387756D-02
   1381.5105503             -0.16683029937D-01
    313.87147580            -0.75262436116D-01
     88.053870623           -0.19376827038
     27.039914905           -0.17718020803
S    3   1.00
     45.648731303           -0.10736062573
      4.9664522326           0.65066293018
      2.0116242047           0.59712155354
S    1   1.00
      0.35661077013          1.0000000
S    1   1.00
      0.13507221477          1.0000000
P    5   1.00
    261.98233439            -0.92729929822D-02
     61.306894736           -0.66547669241D-01
     19.103729887           -0.24828595903
      6.6567720378          -0.48703847402
      2.3959635161          -0.39337850312
P    1   1.00
      0.61776161679          1.0000000
P    1   1.00
      0.16993376871          1.0000000
D    1   1.00
      0.5500000              1.0000000
****
Lu     0
S    5   1.00
  95169.767000               0.22000000000D-04
  15488.403000               0.14500000000D-03
   3776.2335000              0.65100000000D-03
   1079.0501000              0.20380000000D-02
    268.95380000             0.51270000000D-02
S    1   1.00
     63.467900000            1.0000000
S    1   1.00
     45.133200000            1.0000000
S    1   1.00
     21.456800000            1.0000000
S    1   1.00
      5.3483000000           1.0000000
S    1   1.00
      2.6778000000           1.0000000
S    1   1.00
      1.0287000000           1.0000000
S    1   1.00
      0.44080000000          1.0000000
S    1   1.00
      0.79100000000D-01      1.0000000
S    1   1.00
      0.31300000000D-01      1.0000000
P    3   1.00
     12.333733920           -0.15313031066
     11.080331415           -0.20300664852
      2.0341747228          -0.19458361263
P    6   1.00
   1500.5317313             -0.10192569555D-02
    382.39748937            -0.59476212135D-02
    132.99969628            -0.16265160929D-01
     46.110032419           -0.35623845839D-01
     15.583529011            0.23709171074
      5.7856677022          -0.30670977844
P    1   1.00
      3.7823361008           1.0000000
P    1   1.00
      1.3682592248           1.0000000
P    1   1.00
      0.57288205601          1.0000000
P    1   1.00
      0.22793165135          1.0000000
P    1   1.00
      0.81403917986D-01      1.0000000
P    1   1.00
      0.29091071778D-01      1.0000000
D    6   1.00
    484.52750000             0.22860000000D-02
    146.66550000             0.18629000000D-01
     56.377900000            0.74088000000D-01
     23.671100000            0.16155400000
      9.4401000000           0.30809100000
      4.3712000000           0.44833400000
D    1   1.00
      1.9580000000           1.0000000
D    1   1.00
      0.72720000000          1.0000000
D    1   1.00
      0.24600000000          1.0000000
D    1   1.00
      0.74400000000D-01      1.0000000
F    5   1.00
    175.15590000             0.41020000000D-02
     62.890900000            0.39086000000D-01
     28.362400000            0.14704400000
     13.247800000            0.27109200000
      6.1440000000           0.34566500000
F    1   1.00
      2.7623000000           1.0000000
F    1   1.00
      1.1574000000           1.0000000
F    1   1.00
      0.42440000000          1.0000000
G    1   1.00
      0.70090000000          1.0000000
****

Lu     0
Lu-ECP     5     28
h potential
  1
2      1.00000000             0.00000000
s-h potential
  1
2     35.16209700           989.99558400
p-h potential
  1
2     19.46440200           278.86565200
d-h potential
  1
2     10.00686500            71.00917800
f-h potential
  1
2     23.51793200           -47.40589000
g-h potential
  1
2     29.41223800           -35.55714600




