%chk=i2.chk
%mem=616Gb
%nprocshared=24
#P  UMN15/genecp scf=(maxcyc=500) opt scrf=(smd,solvent=DiChloroEthane)  

Opt

0 2
C                  1.75781000   -0.31584900   -1.25674500
 C                  1.65795800    0.28466200    0.08096300
 C                  0.52921100   -0.88682200   -1.84700300
 O                 -0.56461900   -0.35046000   -1.75569400
 O                  0.65091700    0.85067800    0.47724300
 O                  2.73091800    0.11319900    0.82671500
 O                  0.72536500   -2.03816600   -2.44353900
 C                  2.76521100    0.82258800    2.07460500
 C                 -0.46792700   -2.71067900   -2.87626000
 H                  3.78576200    0.71915400    2.46013400
 H                  2.03875300    0.37733200    2.76821600
 H                  2.53096300    1.88010900    1.90191100
 H                 -0.13263600   -3.64566600   -3.35541000
 H                 -1.02649200   -2.07843400   -3.59055900
 H                 -1.11134000   -2.91800100   -1.99579500
 O                 -3.09028300   -1.52913000   -0.42314800
 O                 -1.33744400   -0.55316600    2.27801500
 O                 -1.30112200    2.78386700   -1.00478700
 S                 -1.69165900    3.61919800    0.15267700
 S                 -3.74885200   -1.01586900   -1.65017700
 S                 -0.37915300   -1.66473900    2.07728100
 O                 -2.00578900    2.74356000    1.31098100
 O                 -2.61019600    4.70991500   -0.10421500
 O                 -3.40635900    0.41035600   -1.85251800
 O                 -3.71962800   -1.87907100   -2.81579100
 O                 -0.12029600   -1.94219400    0.65256800
 O                  0.79873800   -1.64147600    2.94032300
 C                 -1.31462100   -3.13008300    2.66506400
 C                 -5.51812600   -0.93336400   -1.16775500
 C                 -0.13936400    4.47023900    0.65194700
 F                 -0.59276600   -4.22545900    2.45181400
 F                 -2.46489200   -3.24030500    2.02653800
 F                 -1.54689400   -3.01782500    3.96398200
 F                 -5.65244700   -0.15737900   -0.09806700
 F                 -5.97716800   -2.14218400   -0.87979600
 F                 -6.23528600   -0.42440400   -2.15814100
 F                  0.77489500    3.60794800    1.06903300
 F                 -0.40035100    5.32272000    1.63183000
 F                  0.34877300    5.14205100   -0.38352500
 C                  4.20079800   -0.15411000   -1.82198900
 C                  4.99493900   -1.44712000   -1.39513200
 C                  6.44430800   -1.21614400   -1.28428600
 C                  4.78964800   -2.43532200   -2.47657300
 C                  2.78840500   -3.12430900    1.11422300
 C                  4.66222100   -2.02892900    2.12491600
 C                  3.46764900   -2.76230900    2.26303400
 H                  1.85373000   -3.68351800    1.13336500
 H                  5.25541400   -1.72677100    2.98964400
 H                  3.09495900   -3.02806200    3.25197900
 N                  7.58710700   -1.04417100   -1.28148000
 N                  4.63670200   -3.18295500   -3.34472800
 N                  4.45743100   -2.00456900   -0.11848000
 N                  5.13035300   -1.64981000    0.95311400
 C                  3.32862900   -2.73185900   -0.10903600
 H                  2.86702800   -2.97376300   -1.06887900
 H                  4.50570100    0.00639500   -2.86892900
 C                  4.37720900    1.15682500   -1.08902400
 C                  3.51236400    2.18720100   -1.49115900
 C                  5.31730100    1.40129500   -0.08297000
 C                  3.55236000    3.42911700   -0.85793200
 H                  2.79485900    2.01771800   -2.29931600
 C                  5.37434000    2.65778400    0.52611300
 H                  6.00211100    0.62646000    0.26026600
 C                  4.48657200    3.66742300    0.15387300
 H                  2.85389400    4.21189700   -1.15920000
 H                  6.11283700    2.83684700    1.31013200
 H                  4.52346700    4.64058300    0.64777100
 Yb                -1.78959300    0.55530400    0.11692200
 O                  2.86476300   -0.64701200   -1.91370700

H     0
S    3   1.00
     13.0107010              0.19682158D-01
      1.9622572              0.13796524
      0.44453796             0.47831935
S    1   1.00
      0.12194962             1.0000000
P    1   1.00
      0.8000000              1.0000000
****
C     0
S    5   1.00
   1238.4016938              0.54568832082D-02
    186.29004992             0.40638409211D-01
     42.251176346            0.18025593888
     11.676557932            0.46315121755
      3.5930506482           0.44087173314
S    1   1.00
      0.40245147363          1.0000000
S    1   1.00
      0.13090182668          1.0000000
P    3   1.00
      9.4680970621           0.38387871728D-01
      2.0103545142           0.21117025112
      0.54771004707          0.51328172114
P    1   1.00
      0.15268613795          1.0000000
D    1   1.00
      0.8000000              1.0000000
****
N     0
S    5   1.00
   1712.8415853             -0.53934125305D-02
    257.64812677            -0.40221581118D-01
     58.458245853           -0.17931144990
     16.198367905           -0.46376317823
      5.0052600809          -0.44171422662
S    1   1.00
      0.58731856571          1.0000000
S    1   1.00
      0.18764592253          1.0000000
P    3   1.00
     13.571470233           -0.40072398852D-01
      2.9257372874          -0.21807045028
      0.79927750754         -0.51294466049
P    1   1.00
      0.21954348034          1.0000000
D    1   1.00
      1.0000000              1.0000000
****
O     0
S    5   1.00
   2266.1767785             -0.53431809926D-02
    340.87010191            -0.39890039230D-01
     77.363135167           -0.17853911985
     21.479644940           -0.46427684959
      6.6589433124          -0.44309745172
S    1   1.00
      0.80975975668          1.0000000
S    1   1.00
      0.25530772234          1.0000000
P    3   1.00
     17.721504317            0.43394573193D-01
      3.8635505440           0.23094120765
      1.0480920883           0.51375311064
P    1   1.00
      0.27641544411          1.0000000
D    1   1.00
      1.2000000              1.0000000
****
F     0
S    5   1.00
   2894.8325990             -0.53408255515D-02
    435.41939120            -0.39904258866D-01
     98.843328866           -0.17912768038
     27.485198001           -0.46758090825
      8.5405498171          -0.44653131020
S    1   1.00
      1.0654578038           1.0000000
S    1   1.00
      0.33247346748          1.0000000
P    3   1.00
     22.696633924           -0.45212874436D-01
      4.9872339257          -0.23754317067
      1.3491613954          -0.51287353587
P    1   1.00
      0.34829881977          1.0000000
D    1   1.00
      1.4000000              1.0000000
****
S     0
S    5   1.00
   9184.9303010             -0.22294387756D-02
   1381.5105503             -0.16683029937D-01
    313.87147580            -0.75262436116D-01
     88.053870623           -0.19376827038
     27.039914905           -0.17718020803
S    3   1.00
     45.648731303           -0.10736062573
      4.9664522326           0.65066293018
      2.0116242047           0.59712155354
S    1   1.00
      0.35661077013          1.0000000
S    1   1.00
      0.13507221477          1.0000000
P    5   1.00
    261.98233439            -0.92729929822D-02
     61.306894736           -0.66547669241D-01
     19.103729887           -0.24828595903
      6.6567720378          -0.48703847402
      2.3959635161          -0.39337850312
P    1   1.00
      0.61776161679          1.0000000
P    1   1.00
      0.16993376871          1.0000000
D    1   1.00
      0.5500000              1.0000000
****
Yb     0
S    5   1.00
  91972.903000               0.51000000000D-04
  13787.371000               0.38600000000D-03
   3123.6135000              0.18440000000D-02
    871.47540000             0.53560000000D-02
    250.46300000             0.88590000000D-02
S    1   1.00
     58.282700000            1.0000000
S    1   1.00
     41.630500000            1.0000000
S    1   1.00
     20.216400000            1.0000000
S    1   1.00
      4.9972000000           1.0000000
S    1   1.00
      2.4822000000           1.0000000
S    1   1.00
      0.91790000000          1.0000000
S    1   1.00
      0.38530000000          1.0000000
S    1   1.00
      0.61400000000D-01      1.0000000
S    1   1.00
      0.25000000000D-01      1.0000000
P    3   1.00
     12.274108000           -0.15252141000
     10.695631000           -0.20243492000
      2.0359782000          -0.19621046000
P    6   1.00
   1497.5567000             -0.10182934000D-02
    375.04101000            -0.60919401000D-02
    128.69727000            -0.17077693000D-01
     45.270759000           -0.35655508000D-01
     14.906971000            0.23732226000
      5.6450858000          -0.30559689000
P    1   1.00
      3.6752106000           1.0000000
P    1   1.00
      1.3296961000           1.0000000
P    1   1.00
      0.55338966000          1.0000000
P    1   1.00
      0.22382350000          1.0000000
P    1   1.00
      0.68350467650D-01      1.0000000
P    1   1.00
      0.25355670803D-01      1.0000000
D    6   1.00
    469.76060000             0.19840000000D-02
    142.61280000             0.16013000000D-01
     55.126700000            0.63153000000D-01
     23.441500000            0.13780000000
      9.4951000000           0.28549800000
      4.5792000000           0.43830900000
D    1   1.00
      2.1646000000           1.0000000
D    1   1.00
      0.92380000000          1.0000000
D    1   1.00
      0.31070000000          1.0000000
D    1   1.00
      0.91400000000D-01      1.0000000
F    5   1.00
    142.02930000             0.59570000000D-02
     51.086200000            0.53180000000D-01
     22.874100000            0.17807600000
     10.502500000            0.30060000000
      4.7872000000           0.35034200000
F    1   1.00
      2.1088000000           1.0000000
F    1   1.00
      0.86090000000          1.0000000
F    1   1.00
      0.30600000000          1.0000000
G    1   1.00
      0.51330000000          1.0000000
****

Yb     0
Yb-ECP     5     28
h potential
  1
2      1.00000000             0.00000000
s-h potential
  1
2     32.42448400           891.01377700
p-h potential
  1
2     18.65623200           264.03695300
d-h potential
  1
2     10.49022200            73.92391900
f-h potential
  1
2     20.77418300           -39.59217300
g-h potential
  1
2     28.43102800           -34.63863800





























































