%chk=ts-major.chk
%mem=616Gb
%nprocshared=24
# irc=(maxpoints=100,recorrect=never,calcfc,maxcycles=500,nogradstop) UMN15/genecp scrf=(smd,solvent=DiChloroEthane)  

IRC for Going from i2 to i3, where we are forming bond 7-66

0 2
C                  5.5022980000      0.6467870000      0.2255700000
C                  5.8850980000      0.4493030000     -1.1076770000
C                  7.1062320000      0.9535230000     -1.5547630000
C                  7.9445350000      1.6452970000     -0.6762580000
C                  7.5596070000      1.8432170000      0.6518780000
C                  6.3359790000      1.3486760000      1.1041300000
C                  1.9898110000     -0.3389390000     -0.1403460000
C                  1.1480450000      0.3789450000      0.8922850000
C                  1.2637720000     -0.6620270000     -1.4207570000
H                  5.2240810000     -0.0862880000     -1.7925480000
H                  7.4031060000      0.8058940000     -2.5950470000
H                  8.9003170000      2.0372790000     -1.0307920000
H                  8.2090710000      2.3916240000      1.3370060000
H                  6.0237620000      1.5099990000      2.1393760000
O                  0.0523870000     -0.7447230000     -1.4734100000
O                  0.0281840000      0.0047780000      1.1793630000
O                  1.7567530000      1.4050000000      1.4224950000
O                  2.0731710000     -0.9386750000     -2.4037820000
C                  0.9750460000      2.2060130000      2.3287210000
C                  1.4392750000     -1.3207770000     -3.6390210000
H                  1.6282580000      3.0222770000      2.6507860000
H                  0.6552620000      1.5948600000      3.1828530000
H                  0.0908630000      2.5831360000      1.7985000000
H                  2.2454230000     -1.6070690000     -4.3205480000
H                  0.8785770000     -0.4612300000     -4.0281640000
H                  0.7552330000     -2.1601940000     -3.4525960000
O                 -1.9367800000     -2.2856980000      0.0712260000
O                 -2.2420510000      2.1441720000      1.3874960000
O                 -0.1104260000      1.9969080000     -0.7983870000
S                 -0.4502230000      2.1274340000     -2.2341730000
S                 -2.1276210000     -2.7602730000     -1.3235460000
S                 -2.6538500000      1.2830240000      2.5208570000
O                 -1.7400840000      1.4597570000     -2.5210720000
O                  0.6359820000      1.8810250000     -3.1696920000
O                 -2.5761370000     -1.6531620000     -2.1862900000
O                 -1.0762810000     -3.6307250000     -1.8347010000
O                 -2.8063690000     -0.1181590000      2.0647890000
O                 -1.9752990000      1.4952510000      3.7858910000
C                 -4.3887640000      1.8040910000      2.8191810000
C                 -3.6055020000     -3.8405450000     -1.1910560000
C                 -0.8427360000      3.9101700000     -2.4215010000
F                 -4.9326750000      1.0670740000      3.7755730000
F                 -5.0965300000      1.6507650000      1.7047970000
F                 -4.4293070000      3.0776860000      3.1795320000
F                 -3.9235260000     -4.3232240000     -2.3818280000
F                 -4.6286810000     -3.1404920000     -0.7207820000
F                 -3.3579490000     -4.8478650000     -0.3675710000
F                  0.2123100000      4.6402010000     -2.0949190000
F                 -1.8542430000      4.2330350000     -1.6288780000
F                 -1.1772840000      4.1691950000     -3.6759370000
C                  4.2092930000      0.0780840000      0.7389470000
H                  3.8180820000      0.6659140000      1.5822420000
C                  4.3890470000     -1.3977350000      1.3076800000
C                  5.1960810000     -1.3404000000      2.5362420000
C                  5.0509590000     -2.2606550000      0.3112290000
C                  0.9352150000     -2.7590610000      0.8483180000
C                  1.4037660000     -2.1969880000      3.1310120000
C                  0.5225540000     -2.7363250000      2.1545340000
H                  0.3110840000     -3.1334980000      0.0345880000
H                  1.1058700000     -2.0955550000      4.1764990000
H                 -0.4608200000     -3.1071460000      2.4459240000
N                  5.8795350000     -1.2499220000      3.4637950000
N                  5.5682520000     -2.9158760000     -0.4886740000
N                  3.0450380000     -1.9259060000      1.6063430000
N                  2.6316660000     -1.8079460000      2.8523790000
C                  2.2138370000     -2.2048720000      0.5366470000
H                  2.7267070000     -2.5124920000     -0.3828750000
O                  3.2765600000     -0.0027760000     -0.3225970000
Yb                -2.0466540000      0.1910180000     -0.3360400000

H     0
S    3   1.00
     13.0107010              0.19682158D-01
      1.9622572              0.13796524
      0.44453796             0.47831935
S    1   1.00
      0.12194962             1.0000000
P    1   1.00
      0.8000000              1.0000000
****
C     0
S    5   1.00
   1238.4016938              0.54568832082D-02
    186.29004992             0.40638409211D-01
     42.251176346            0.18025593888
     11.676557932            0.46315121755
      3.5930506482           0.44087173314
S    1   1.00
      0.40245147363          1.0000000
S    1   1.00
      0.13090182668          1.0000000
P    3   1.00
      9.4680970621           0.38387871728D-01
      2.0103545142           0.21117025112
      0.54771004707          0.51328172114
P    1   1.00
      0.15268613795          1.0000000
D    1   1.00
      0.8000000              1.0000000
****
N     0
S    5   1.00
   1712.8415853             -0.53934125305D-02
    257.64812677            -0.40221581118D-01
     58.458245853           -0.17931144990
     16.198367905           -0.46376317823
      5.0052600809          -0.44171422662
S    1   1.00
      0.58731856571          1.0000000
S    1   1.00
      0.18764592253          1.0000000
P    3   1.00
     13.571470233           -0.40072398852D-01
      2.9257372874          -0.21807045028
      0.79927750754         -0.51294466049
P    1   1.00
      0.21954348034          1.0000000
D    1   1.00
      1.0000000              1.0000000
****
O     0
S    5   1.00
   2266.1767785             -0.53431809926D-02
    340.87010191            -0.39890039230D-01
     77.363135167           -0.17853911985
     21.479644940           -0.46427684959
      6.6589433124          -0.44309745172
S    1   1.00
      0.80975975668          1.0000000
S    1   1.00
      0.25530772234          1.0000000
P    3   1.00
     17.721504317            0.43394573193D-01
      3.8635505440           0.23094120765
      1.0480920883           0.51375311064
P    1   1.00
      0.27641544411          1.0000000
D    1   1.00
      1.2000000              1.0000000
****
F     0
S    5   1.00
   2894.8325990             -0.53408255515D-02
    435.41939120            -0.39904258866D-01
     98.843328866           -0.17912768038
     27.485198001           -0.46758090825
      8.5405498171          -0.44653131020
S    1   1.00
      1.0654578038           1.0000000
S    1   1.00
      0.33247346748          1.0000000
P    3   1.00
     22.696633924           -0.45212874436D-01
      4.9872339257          -0.23754317067
      1.3491613954          -0.51287353587
P    1   1.00
      0.34829881977          1.0000000
D    1   1.00
      1.4000000              1.0000000
****
S     0
S    5   1.00
   9184.9303010             -0.22294387756D-02
   1381.5105503             -0.16683029937D-01
    313.87147580            -0.75262436116D-01
     88.053870623           -0.19376827038
     27.039914905           -0.17718020803
S    3   1.00
     45.648731303           -0.10736062573
      4.9664522326           0.65066293018
      2.0116242047           0.59712155354
S    1   1.00
      0.35661077013          1.0000000
S    1   1.00
      0.13507221477          1.0000000
P    5   1.00
    261.98233439            -0.92729929822D-02
     61.306894736           -0.66547669241D-01
     19.103729887           -0.24828595903
      6.6567720378          -0.48703847402
      2.3959635161          -0.39337850312
P    1   1.00
      0.61776161679          1.0000000
P    1   1.00
      0.16993376871          1.0000000
D    1   1.00
      0.5500000              1.0000000
****
Yb     0
S    5   1.00
  91972.903000               0.51000000000D-04
  13787.371000               0.38600000000D-03
   3123.6135000              0.18440000000D-02
    871.47540000             0.53560000000D-02
    250.46300000             0.88590000000D-02
S    1   1.00
     58.282700000            1.0000000
S    1   1.00
     41.630500000            1.0000000
S    1   1.00
     20.216400000            1.0000000
S    1   1.00
      4.9972000000           1.0000000
S    1   1.00
      2.4822000000           1.0000000
S    1   1.00
      0.91790000000          1.0000000
S    1   1.00
      0.38530000000          1.0000000
S    1   1.00
      0.61400000000D-01      1.0000000
S    1   1.00
      0.25000000000D-01      1.0000000
P    3   1.00
     12.274108000           -0.15252141000
     10.695631000           -0.20243492000
      2.0359782000          -0.19621046000
P    6   1.00
   1497.5567000             -0.10182934000D-02
    375.04101000            -0.60919401000D-02
    128.69727000            -0.17077693000D-01
     45.270759000           -0.35655508000D-01
     14.906971000            0.23732226000
      5.6450858000          -0.30559689000
P    1   1.00
      3.6752106000           1.0000000
P    1   1.00
      1.3296961000           1.0000000
P    1   1.00
      0.55338966000          1.0000000
P    1   1.00
      0.22382350000          1.0000000
P    1   1.00
      0.68350467650D-01      1.0000000
P    1   1.00
      0.25355670803D-01      1.0000000
D    6   1.00
    469.76060000             0.19840000000D-02
    142.61280000             0.16013000000D-01
     55.126700000            0.63153000000D-01
     23.441500000            0.13780000000
      9.4951000000           0.28549800000
      4.5792000000           0.43830900000
D    1   1.00
      2.1646000000           1.0000000
D    1   1.00
      0.92380000000          1.0000000
D    1   1.00
      0.31070000000          1.0000000
D    1   1.00
      0.91400000000D-01      1.0000000
F    5   1.00
    142.02930000             0.59570000000D-02
     51.086200000            0.53180000000D-01
     22.874100000            0.17807600000
     10.502500000            0.30060000000
      4.7872000000           0.35034200000
F    1   1.00
      2.1088000000           1.0000000
F    1   1.00
      0.86090000000          1.0000000
F    1   1.00
      0.30600000000          1.0000000
G    1   1.00
      0.51330000000          1.0000000
****

Yb     0
Yb-ECP     5     28
h potential
  1
2      1.00000000             0.00000000
s-h potential
  1
2     32.42448400           891.01377700
p-h potential
  1
2     18.65623200           264.03695300
d-h potential
  1
2     10.49022200            73.92391900
f-h potential
  1
2     20.77418300           -39.59217300
g-h potential
  1
2     28.43102800           -34.63863800
































