%chk=preplx.chk
%mem=616Gb
%nprocshared=24
#P UMN15/genecp scf=(maxcyc=500) opt=(modred) scrf=(smd,solvent=DiChloroEthane)  

Opt

0 1
     C         4.755129   -1.081774    0.792208
     C         6.085093   -0.847937    0.421081
     C         7.119749   -1.043028    1.337501
     C         6.831332   -1.492362    2.626141
     C         5.509765   -1.782127    2.983055
     C         4.477042   -1.593002    2.067153
     C         2.272217   -0.514314   -0.108360
     C         1.526880   -0.093464   -1.361834
     C         1.632822   -0.024538    1.178509
     H         6.310061   -0.503289   -0.591717
     H         8.151884   -0.844730    1.040983
     H         7.636795   -1.639085    3.349259
     H         5.284719   -2.169288    3.979228
     H         3.454498   -1.859246    2.342887
     O         0.419776   -0.050793    1.385136
     O         0.307642    0.078496   -1.383250
     O         2.278127    0.001131   -2.404525
     O         2.474355    0.469009    2.025081
     C         1.708958    0.437725   -3.648881
     C         2.001918    0.938292    3.298558
     H         2.547615    0.812929   -4.244002
     H         0.968775    1.227480   -3.463503
     H         1.229548   -0.414206   -4.147431
     H         2.887009    1.321170    3.817418
     H         1.553551    0.104285    3.854275
     H         1.256130    1.730842    3.147055
     O        -2.637375    0.438472    1.825072
     O        -2.614681    0.752440   -1.467488
     O        -0.168599   -2.420400    0.091669
     S        -1.025170   -3.133593   -0.905921
     S        -3.302269   -0.839003    2.240531
     S        -2.079362    2.125583   -1.187082
     O        -1.939924   -2.077216   -1.449398
     O        -1.604023   -4.394337   -0.526023
     O        -2.639230   -1.885649    1.401502
     O        -3.475055   -1.092327    3.643230
     O        -1.180542    1.968487   -0.009480
     O        -1.591878    2.884150   -2.314449
     C        -3.532777    3.070488   -0.562451
     C        -4.972984   -0.686341    1.484466
     C         0.126755   -3.530746   -2.286278
     F        -3.097634    4.191956   -0.015755
     F        -4.187179    2.362550    0.335786
     F        -4.327164    3.348144   -1.576857
     F        -4.812325   -0.533884    0.177461
     F        -5.585426    0.367957    1.982910
     F        -5.676175   -1.772538    1.723250
     F         0.716262   -2.427009   -2.720060
     F        -0.553922   -4.079287   -3.272223
     F         1.039052   -4.372127   -1.846185
     C         3.701017   -0.888960   -0.247459
     H         4.098994   -0.740553   -1.254966
     C         4.159274    1.872841   -0.197891
     C         4.793910    1.604744   -1.431032
     C         4.874118    1.901140    1.022117
     C         1.363605    4.108933    0.722516
     C         1.333538    3.520157   -1.571843
     C         0.750847    4.228708   -0.515078
     H         0.988890    4.618713    1.610914
     H         0.908428    3.544713   -2.577281
     H        -0.152717    4.818153   -0.669264
     N         5.324891    1.334520   -2.434127
     N         5.397201    1.960202    2.063665
     N         2.993411    2.677249   -0.251846
     N         2.412920    2.766383   -1.444237
     C         2.502571    3.323147    0.835198
     H         3.059001    3.213408    1.765625
    Lu        -1.387539   -0.417436    0.072598
     O         2.643642   -1.863582   -0.208065

51 53 F

H     0
S    3   1.00
     13.0107010              0.19682158D-01
      1.9622572              0.13796524
      0.44453796             0.47831935
S    1   1.00
      0.12194962             1.0000000
P    1   1.00
      0.8000000              1.0000000
****
C     0
S    5   1.00
   1238.4016938              0.54568832082D-02
    186.29004992             0.40638409211D-01
     42.251176346            0.18025593888
     11.676557932            0.46315121755
      3.5930506482           0.44087173314
S    1   1.00
      0.40245147363          1.0000000
S    1   1.00
      0.13090182668          1.0000000
P    3   1.00
      9.4680970621           0.38387871728D-01
      2.0103545142           0.21117025112
      0.54771004707          0.51328172114
P    1   1.00
      0.15268613795          1.0000000
D    1   1.00
      0.8000000              1.0000000
****
N     0
S    5   1.00
   1712.8415853             -0.53934125305D-02
    257.64812677            -0.40221581118D-01
     58.458245853           -0.17931144990
     16.198367905           -0.46376317823
      5.0052600809          -0.44171422662
S    1   1.00
      0.58731856571          1.0000000
S    1   1.00
      0.18764592253          1.0000000
P    3   1.00
     13.571470233           -0.40072398852D-01
      2.9257372874          -0.21807045028
      0.79927750754         -0.51294466049
P    1   1.00
      0.21954348034          1.0000000
D    1   1.00
      1.0000000              1.0000000
****
O     0
S    5   1.00
   2266.1767785             -0.53431809926D-02
    340.87010191            -0.39890039230D-01
     77.363135167           -0.17853911985
     21.479644940           -0.46427684959
      6.6589433124          -0.44309745172
S    1   1.00
      0.80975975668          1.0000000
S    1   1.00
      0.25530772234          1.0000000
P    3   1.00
     17.721504317            0.43394573193D-01
      3.8635505440           0.23094120765
      1.0480920883           0.51375311064
P    1   1.00
      0.27641544411          1.0000000
D    1   1.00
      1.2000000              1.0000000
****
F     0
S    5   1.00
   2894.8325990             -0.53408255515D-02
    435.41939120            -0.39904258866D-01
     98.843328866           -0.17912768038
     27.485198001           -0.46758090825
      8.5405498171          -0.44653131020
S    1   1.00
      1.0654578038           1.0000000
S    1   1.00
      0.33247346748          1.0000000
P    3   1.00
     22.696633924           -0.45212874436D-01
      4.9872339257          -0.23754317067
      1.3491613954          -0.51287353587
P    1   1.00
      0.34829881977          1.0000000
D    1   1.00
      1.4000000              1.0000000
****
S     0
S    5   1.00
   9184.9303010             -0.22294387756D-02
   1381.5105503             -0.16683029937D-01
    313.87147580            -0.75262436116D-01
     88.053870623           -0.19376827038
     27.039914905           -0.17718020803
S    3   1.00
     45.648731303           -0.10736062573
      4.9664522326           0.65066293018
      2.0116242047           0.59712155354
S    1   1.00
      0.35661077013          1.0000000
S    1   1.00
      0.13507221477          1.0000000
P    5   1.00
    261.98233439            -0.92729929822D-02
     61.306894736           -0.66547669241D-01
     19.103729887           -0.24828595903
      6.6567720378          -0.48703847402
      2.3959635161          -0.39337850312
P    1   1.00
      0.61776161679          1.0000000
P    1   1.00
      0.16993376871          1.0000000
D    1   1.00
      0.5500000              1.0000000
****
Lu     0
S    5   1.00
  95169.767000               0.22000000000D-04
  15488.403000               0.14500000000D-03
   3776.2335000              0.65100000000D-03
   1079.0501000              0.20380000000D-02
    268.95380000             0.51270000000D-02
S    1   1.00
     63.467900000            1.0000000
S    1   1.00
     45.133200000            1.0000000
S    1   1.00
     21.456800000            1.0000000
S    1   1.00
      5.3483000000           1.0000000
S    1   1.00
      2.6778000000           1.0000000
S    1   1.00
      1.0287000000           1.0000000
S    1   1.00
      0.44080000000          1.0000000
S    1   1.00
      0.79100000000D-01      1.0000000
S    1   1.00
      0.31300000000D-01      1.0000000
P    3   1.00
     12.333733920           -0.15313031066
     11.080331415           -0.20300664852
      2.0341747228          -0.19458361263
P    6   1.00
   1500.5317313             -0.10192569555D-02
    382.39748937            -0.59476212135D-02
    132.99969628            -0.16265160929D-01
     46.110032419           -0.35623845839D-01
     15.583529011            0.23709171074
      5.7856677022          -0.30670977844
P    1   1.00
      3.7823361008           1.0000000
P    1   1.00
      1.3682592248           1.0000000
P    1   1.00
      0.57288205601          1.0000000
P    1   1.00
      0.22793165135          1.0000000
P    1   1.00
      0.81403917986D-01      1.0000000
P    1   1.00
      0.29091071778D-01      1.0000000
D    6   1.00
    484.52750000             0.22860000000D-02
    146.66550000             0.18629000000D-01
     56.377900000            0.74088000000D-01
     23.671100000            0.16155400000
      9.4401000000           0.30809100000
      4.3712000000           0.44833400000
D    1   1.00
      1.9580000000           1.0000000
D    1   1.00
      0.72720000000          1.0000000
D    1   1.00
      0.24600000000          1.0000000
D    1   1.00
      0.74400000000D-01      1.0000000
F    5   1.00
    175.15590000             0.41020000000D-02
     62.890900000            0.39086000000D-01
     28.362400000            0.14704400000
     13.247800000            0.27109200000
      6.1440000000           0.34566500000
F    1   1.00
      2.7623000000           1.0000000
F    1   1.00
      1.1574000000           1.0000000
F    1   1.00
      0.42440000000          1.0000000
G    1   1.00
      0.70090000000          1.0000000
****

Lu     0
Lu-ECP     5     28
h potential
  1
2      1.00000000             0.00000000
s-h potential
  1
2     35.16209700           989.99558400
p-h potential
  1
2     19.46440200           278.86565200
d-h potential
  1
2     10.00686500            71.00917800
f-h potential
  1
2     23.51793200           -47.40589000
g-h potential
  1
2     29.41223800           -35.55714600

