%chk=scan-minor
%mem=616GB
%nprocshared=24
#opt=(modred) freq MN15/gen scrf=(smd,solvent=DiChloroEthane)

Scan

0 1
C                  1.8413190000     -0.9547460000     -0.7195940000
C                  1.4373490000     -0.2711750000      0.5887520000
C                  0.5606810000     -1.4852170000     -1.3556080000
O                 -0.3719420000     -0.7225740000     -1.6348890000
O                  0.4643680000      0.4890470000      0.6485960000
O                  2.1906770000     -0.5030520000      1.6065590000
O                  0.5244920000     -2.7468070000     -1.6093150000
C                  1.9042680000      0.2141210000      2.8238560000
C                 -0.7168100000     -3.2994270000     -2.0993160000
H                  2.7217850000     -0.0199520000      3.5116600000
H                  0.9443910000     -0.1346990000      3.2270600000
H                  1.8622460000      1.2905360000      2.6074510000
H                 -0.5162120000     -4.3557230000     -2.2980390000
H                 -1.0224490000     -2.7778050000     -3.0150330000
H                 -1.4787170000     -3.1794300000     -1.3171420000
O                 -3.0577140000     -1.2129260000     -0.6272400000
O                 -2.1429830000     -0.1320680000      1.8214260000
O                 -0.6557940000      2.1597580000     -1.2399070000
S                 -1.5533590000      3.1056330000     -0.5128930000
S                 -3.7496040000     -0.4707440000     -1.7319010000
S                 -1.6055160000     -1.5185130000      2.0492290000
O                 -2.2786570000      2.2320900000      0.4766360000
O                 -2.3281510000      4.0500350000     -1.2712120000
O                 -2.9170020000      0.7620560000     -1.8916190000
O                 -4.1302110000     -1.2036170000     -2.9071510000
O                 -0.8407500000     -1.8592310000      0.8183230000
O                 -0.9645310000     -1.7532400000      3.3199820000
C                 -3.1157430000     -2.6261550000      2.0197680000
C                 -5.2876200000      0.1273740000     -0.9144880000
C                 -0.4282960000      4.0993990000      0.5527480000
F                 -2.9950270000     -3.5048780000      1.0467040000
F                 -4.2029080000     -1.9041520000      1.8488050000
F                 -3.1830950000     -3.2559300000      3.1757010000
F                 -4.9460460000      0.7627050000      0.1923890000
F                 -6.0486590000     -0.9070280000     -0.6202310000
F                 -5.9284710000      0.9456670000     -1.7226360000
F                  0.1958970000      3.3040250000      1.3991340000
F                 -1.1381520000      4.9888810000      1.2170820000
F                  0.4490580000      4.7152650000     -0.2196040000
C                  3.7509950000      0.6443270000     -1.3505670000
C                  4.6835130000     -0.5935830000     -1.3418350000
C                  6.0903270000     -0.2061780000     -1.0870250000
C                  4.6804750000     -1.2211290000     -2.6989650000
C                  2.5540640000     -3.0537990000      0.5349430000
C                  4.9032170000     -3.5348200000      0.5733780000
C                  3.5475810000     -3.7846160000      1.0552070000
H                  1.5121390000     -3.1571140000      0.8515930000
H                  5.7197600000     -4.2240010000      0.8056710000
H                  3.3777780000     -4.5385500000      1.8252330000
N                  7.1861800000      0.1434820000     -0.9630470000
N                  4.6264730000     -1.7503000000     -3.7274700000
N                  4.2284820000     -1.5580170000     -0.3491260000
N                  5.2173990000     -2.4784880000     -0.0875650000
C                  2.8795160000     -2.0822270000     -0.5755300000
H                  2.8635090000     -2.6278980000     -1.5460170000
C                  2.3382250000      0.1569580000     -1.6840340000
H                  1.6209590000      0.9910130000     -1.6680780000
H                  2.3285540000     -0.2564030000     -2.7051700000
Sc                -1.5149980000      0.3233730000     -0.1928650000
H                  4.0713680000      1.2645650000     -2.2027870000
C                  3.8502510000      1.5185070000     -0.1026150000
C                  3.1671600000      2.7451320000     -0.1254950000
C                  4.6134850000      1.2026740000      1.0318530000
C                  3.2746210000      3.6455390000      0.9365380000
H                  2.5591310000      3.0103120000     -0.9964890000
C                  4.7228060000      2.1051680000      2.0922710000
H                  5.1167380000      0.2391660000      1.1186660000
C                  4.0609160000      3.3325120000      2.0470560000
H                  2.7466760000      4.5994470000      0.8911600000
H                  5.3293010000      1.8381520000      2.9606360000
H                  4.1523680000      4.0402100000      2.8739160000

1 54 S 10 +0.1

H     0
S    3   1.00
     13.0107010              0.19682158D-01
      1.9622572              0.13796524
      0.44453796             0.47831935
S    1   1.00
      0.12194962             1.0000000
P    1   1.00
      0.8000000              1.0000000
****
C     0
S    5   1.00
   1238.4016938              0.54568832082D-02
    186.29004992             0.40638409211D-01
     42.251176346            0.18025593888
     11.676557932            0.46315121755
      3.5930506482           0.44087173314
S    1   1.00
      0.40245147363          1.0000000
S    1   1.00
      0.13090182668          1.0000000
P    3   1.00
      9.4680970621           0.38387871728D-01
      2.0103545142           0.21117025112
      0.54771004707          0.51328172114
P    1   1.00
      0.15268613795          1.0000000
D    1   1.00
      0.8000000              1.0000000
****
N     0
S    5   1.00
   1712.8415853             -0.53934125305D-02
    257.64812677            -0.40221581118D-01
     58.458245853           -0.17931144990
     16.198367905           -0.46376317823
      5.0052600809          -0.44171422662
S    1   1.00
      0.58731856571          1.0000000
S    1   1.00
      0.18764592253          1.0000000
P    3   1.00
     13.571470233           -0.40072398852D-01
      2.9257372874          -0.21807045028
      0.79927750754         -0.51294466049
P    1   1.00
      0.21954348034          1.0000000
D    1   1.00
      1.0000000              1.0000000
****
O     0
S    5   1.00
   2266.1767785             -0.53431809926D-02
    340.87010191            -0.39890039230D-01
     77.363135167           -0.17853911985
     21.479644940           -0.46427684959
      6.6589433124          -0.44309745172
S    1   1.00
      0.80975975668          1.0000000
S    1   1.00
      0.25530772234          1.0000000
P    3   1.00
     17.721504317            0.43394573193D-01
      3.8635505440           0.23094120765
      1.0480920883           0.51375311064
P    1   1.00
      0.27641544411          1.0000000
D    1   1.00
      1.2000000              1.0000000
****
F     0
S    5   1.00
   2894.8325990             -0.53408255515D-02
    435.41939120            -0.39904258866D-01
     98.843328866           -0.17912768038
     27.485198001           -0.46758090825
      8.5405498171          -0.44653131020
S    1   1.00
      1.0654578038           1.0000000
S    1   1.00
      0.33247346748          1.0000000
P    3   1.00
     22.696633924           -0.45212874436D-01
      4.9872339257          -0.23754317067
      1.3491613954          -0.51287353587
P    1   1.00
      0.34829881977          1.0000000
D    1   1.00
      1.4000000              1.0000000
****
S     0
S    5   1.00
   9184.9303010             -0.22294387756D-02
   1381.5105503             -0.16683029937D-01
    313.87147580            -0.75262436116D-01
     88.053870623           -0.19376827038
     27.039914905           -0.17718020803
S    3   1.00
     45.648731303           -0.10736062573
      4.9664522326           0.65066293018
      2.0116242047           0.59712155354
S    1   1.00
      0.35661077013          1.0000000
S    1   1.00
      0.13507221477          1.0000000
P    5   1.00
    261.98233439            -0.92729929822D-02
     61.306894736           -0.66547669241D-01
     19.103729887           -0.24828595903
      6.6567720378          -0.48703847402
      2.3959635161          -0.39337850312
P    1   1.00
      0.61776161679          1.0000000
P    1   1.00
      0.16993376871          1.0000000
D    1   1.00
      0.5500000              1.0000000
****
Sc     0
S    8   1.00
 191612.9187400              0.23076475942D-03
  28723.8503630              0.17890329946D-02
   6537.0116490              0.92990401140D-02
   1850.3097171              0.37739438011D-01
    602.38855156             0.12227148359
    216.17324766             0.28814821470
     83.712517880            0.40517543099
     32.908707189            0.20566019623
S    4   1.00
    211.34393234            -0.24527991462D-01
     65.128920139           -0.11570158142
     10.034311535            0.55995283317
      4.1596884597           0.56087765073
S    2   1.00
      6.0009041613          -0.22840494325
      0.98255784150          0.71948970378
S    1   1.00
      0.42483192773          1.0000000
S    1   1.00
      0.77185462096D-01      1.0000000
S    1   1.00
      0.30147219702D-01      1.0000000
P    6   1.00
    947.34122823             0.24737208744D-02
    224.09699732             0.19742967060D-01
     71.560334882            0.90357147549D-01
     26.444824490            0.25201602503
     10.393798285            0.39675535929
      4.1606304559           0.23208624517
P    3   1.00
     15.565737135           -0.27129423974D-01
      2.1121544865           0.55109256629
      0.84184709021          1.0090635806
P    1   1.00
      0.32297542652          1.0000000
P    1   1.00
      0.0897480              1.0000000
D    4   1.00
     30.989390993            0.11902837431D-01
      8.6905465069           0.67655856850D-01
      2.9520256337           0.21332539722
      1.0761910745           0.38391075578
D    1   1.00
      0.38338915095           .43354716259
D    1   1.00
      0.12534686113           .24509263822
D    1   1.00
      0.0410000              1.0000000
F    1   1.00
      0.3450000              1.0000000
****
















