%chk=TS1.chk
%mem=92Gb
%nprocshared=24
#P UMN15/genecp scf=(maxcyc=500) irc=(maxpoints=100,recorrect=never,calcfc,maxcycles=500,nogradstop) scrf=(smd,solvent=DiChloroEthane)  

TS Opt

0 1
   C    4.708222   -1.608881    0.291334
   C    4.888803   -2.942958   -0.151896
   C    5.920935   -3.237155   -1.028490
   C    6.772669   -2.209108   -1.458215
   C    6.604144   -0.886662   -1.019812
   C    5.570877   -0.574150   -0.150425
   C    2.100319   -0.077168    1.252645
   C    1.840111    0.336432   -0.086563
   C    1.063888   -0.278390    2.222561
   H    4.210718   -3.720932    0.205522
   H    6.072748   -4.258439   -1.380921
   H    7.586468   -2.443300   -2.148541
   H    7.284842   -0.106815   -1.364882
   H    5.418396    0.445977    0.208291
   O   -0.156174   -0.110633    1.993382
   O    0.705479    0.300959   -0.615674
   O    2.877934    0.788568   -0.760607
   O    1.493661   -0.664928    3.395909
   C    2.649107    1.204567   -2.110111
   C    0.535566   -0.763211    4.452824
   H    3.589104    1.646684   -2.456458
   H    1.835097    1.943596   -2.147961
   H    2.379556    0.341686   -2.734341
   H    1.084448   -1.120269    5.329895
   H   -0.260108   -1.471189    4.184964
   H    0.105509    0.227860    4.651340
   O   -3.150688    0.126335    1.320813
   O   -2.167317    0.514240   -1.770757
   O    0.167492   -2.394396    0.454085
   S   -0.218903   -3.066585   -0.818938
   S   -3.691410   -1.253893    1.520582
   S   -1.968434    1.954141   -1.412008
   O   -1.055736   -2.075927   -1.564111
   O   -0.691536   -4.425599   -0.754892
   O   -2.657458   -2.159390    0.930529
   O   -4.234504   -1.591557    2.808174
   O   -1.470421    1.966040   -0.010868
   O   -1.287783    2.775769   -2.386425
   C   -3.667563    2.652966   -1.304409
   C   -5.073320   -1.333335    0.309396
   C    1.350049   -3.163621   -1.784301
   F   -3.588678    3.834042   -0.712662
   F   -4.450778    1.857062   -0.604179
   F   -4.156813    2.799952   -2.520685
   F   -4.582479   -1.115180   -0.900651
   F   -5.964578   -0.406113    0.599629
   F   -5.635011   -2.524861    0.352711
   F    2.036756   -2.034618   -1.680263
   F    1.071921   -3.390498   -3.052367
   F    2.078837   -4.156771   -1.304582
   C    3.656823   -1.350147    1.199984
   H    3.041678   -2.174360    1.586955
   C    3.034549    3.117484    1.574055
   C    4.411952    2.871072    1.415546
   C    2.328972    2.708100    2.718604
   C    0.362764    4.510032   -0.529228
   C    2.509874    4.761740   -1.504260
   C    1.132374    4.990828   -1.579943
   H   -0.722227    4.609151   -0.507439
   H    3.188862    5.085398   -2.296549
   H    0.694838    5.507440   -2.433572
   N    5.551915    2.644160    1.311020
   N    1.717649    2.368141    3.654445
   N    2.341333    3.721830    0.513918
   N    3.098349    4.147617   -0.490030
   C    0.992451    3.855909    0.518264
   H    0.456838    3.432104    1.367976
  Lu   -1.249925   -0.461973    0.104366
   O    3.430698   -0.140547    1.696461

H     0
S    3   1.00
     13.0107010              0.19682158D-01
      1.9622572              0.13796524
      0.44453796             0.47831935
S    1   1.00
      0.12194962             1.0000000
P    1   1.00
      0.8000000              1.0000000
****
C     0
S    5   1.00
   1238.4016938              0.54568832082D-02
    186.29004992             0.40638409211D-01
     42.251176346            0.18025593888
     11.676557932            0.46315121755
      3.5930506482           0.44087173314
S    1   1.00
      0.40245147363          1.0000000
S    1   1.00
      0.13090182668          1.0000000
P    3   1.00
      9.4680970621           0.38387871728D-01
      2.0103545142           0.21117025112
      0.54771004707          0.51328172114
P    1   1.00
      0.15268613795          1.0000000
D    1   1.00
      0.8000000              1.0000000
****
N     0
S    5   1.00
   1712.8415853             -0.53934125305D-02
    257.64812677            -0.40221581118D-01
     58.458245853           -0.17931144990
     16.198367905           -0.46376317823
      5.0052600809          -0.44171422662
S    1   1.00
      0.58731856571          1.0000000
S    1   1.00
      0.18764592253          1.0000000
P    3   1.00
     13.571470233           -0.40072398852D-01
      2.9257372874          -0.21807045028
      0.79927750754         -0.51294466049
P    1   1.00
      0.21954348034          1.0000000
D    1   1.00
      1.0000000              1.0000000
****
O     0
S    5   1.00
   2266.1767785             -0.53431809926D-02
    340.87010191            -0.39890039230D-01
     77.363135167           -0.17853911985
     21.479644940           -0.46427684959
      6.6589433124          -0.44309745172
S    1   1.00
      0.80975975668          1.0000000
S    1   1.00
      0.25530772234          1.0000000
P    3   1.00
     17.721504317            0.43394573193D-01
      3.8635505440           0.23094120765
      1.0480920883           0.51375311064
P    1   1.00
      0.27641544411          1.0000000
D    1   1.00
      1.2000000              1.0000000
****
F     0
S    5   1.00
   2894.8325990             -0.53408255515D-02
    435.41939120            -0.39904258866D-01
     98.843328866           -0.17912768038
     27.485198001           -0.46758090825
      8.5405498171          -0.44653131020
S    1   1.00
      1.0654578038           1.0000000
S    1   1.00
      0.33247346748          1.0000000
P    3   1.00
     22.696633924           -0.45212874436D-01
      4.9872339257          -0.23754317067
      1.3491613954          -0.51287353587
P    1   1.00
      0.34829881977          1.0000000
D    1   1.00
      1.4000000              1.0000000
****
S     0
S    5   1.00
   9184.9303010             -0.22294387756D-02
   1381.5105503             -0.16683029937D-01
    313.87147580            -0.75262436116D-01
     88.053870623           -0.19376827038
     27.039914905           -0.17718020803
S    3   1.00
     45.648731303           -0.10736062573
      4.9664522326           0.65066293018
      2.0116242047           0.59712155354
S    1   1.00
      0.35661077013          1.0000000
S    1   1.00
      0.13507221477          1.0000000
P    5   1.00
    261.98233439            -0.92729929822D-02
     61.306894736           -0.66547669241D-01
     19.103729887           -0.24828595903
      6.6567720378          -0.48703847402
      2.3959635161          -0.39337850312
P    1   1.00
      0.61776161679          1.0000000
P    1   1.00
      0.16993376871          1.0000000
D    1   1.00
      0.5500000              1.0000000
****
Lu     0
S    5   1.00
  95169.767000               0.22000000000D-04
  15488.403000               0.14500000000D-03
   3776.2335000              0.65100000000D-03
   1079.0501000              0.20380000000D-02
    268.95380000             0.51270000000D-02
S    1   1.00
     63.467900000            1.0000000
S    1   1.00
     45.133200000            1.0000000
S    1   1.00
     21.456800000            1.0000000
S    1   1.00
      5.3483000000           1.0000000
S    1   1.00
      2.6778000000           1.0000000
S    1   1.00
      1.0287000000           1.0000000
S    1   1.00
      0.44080000000          1.0000000
S    1   1.00
      0.79100000000D-01      1.0000000
S    1   1.00
      0.31300000000D-01      1.0000000
P    3   1.00
     12.333733920           -0.15313031066
     11.080331415           -0.20300664852
      2.0341747228          -0.19458361263
P    6   1.00
   1500.5317313             -0.10192569555D-02
    382.39748937            -0.59476212135D-02
    132.99969628            -0.16265160929D-01
     46.110032419           -0.35623845839D-01
     15.583529011            0.23709171074
      5.7856677022          -0.30670977844
P    1   1.00
      3.7823361008           1.0000000
P    1   1.00
      1.3682592248           1.0000000
P    1   1.00
      0.57288205601          1.0000000
P    1   1.00
      0.22793165135          1.0000000
P    1   1.00
      0.81403917986D-01      1.0000000
P    1   1.00
      0.29091071778D-01      1.0000000
D    6   1.00
    484.52750000             0.22860000000D-02
    146.66550000             0.18629000000D-01
     56.377900000            0.74088000000D-01
     23.671100000            0.16155400000
      9.4401000000           0.30809100000
      4.3712000000           0.44833400000
D    1   1.00
      1.9580000000           1.0000000
D    1   1.00
      0.72720000000          1.0000000
D    1   1.00
      0.24600000000          1.0000000
D    1   1.00
      0.74400000000D-01      1.0000000
F    5   1.00
    175.15590000             0.41020000000D-02
     62.890900000            0.39086000000D-01
     28.362400000            0.14704400000
     13.247800000            0.27109200000
      6.1440000000           0.34566500000
F    1   1.00
      2.7623000000           1.0000000
F    1   1.00
      1.1574000000           1.0000000
F    1   1.00
      0.42440000000          1.0000000
G    1   1.00
      0.70090000000          1.0000000
****

Lu     0
Lu-ECP     5     28
h potential
  1
2      1.00000000             0.00000000
s-h potential
  1
2     35.16209700           989.99558400
p-h potential
  1
2     19.46440200           278.86565200
d-h potential
  1
2     10.00686500            71.00917800
f-h potential
  1
2     23.51793200           -47.40589000
g-h potential
  1
2     29.41223800           -35.55714600


