%chk=TS-maj.chk
%mem=92Gb
%nprocshared=24
#P UMN15/genecp scf=(maxcyc=500) opt=(TS,tight,noeigentest,calcFC) freq scrf=(smd,solvent=DiChloroEthane)  

TS Opt

0 1
 C                 -5.65673500   -0.73122100   -0.13378200
 C                 -6.76055700   -0.71316700    0.72744800
 C                 -7.82731100   -1.58667500    0.51285000
 C                 -7.79015500   -2.48458600   -0.55708900
 C                 -6.68497600   -2.50902300   -1.41173400
 C                 -5.61748200   -1.63426100   -1.20397400
 C                 -2.08799800    0.22931300   -0.36611100
 C                 -1.43778100    0.40679900    0.94450800
 C                 -1.23583800   -0.21662000   -1.47687600
 H                 -6.77926300   -0.01547000    1.56944100
 H                 -8.68558000   -1.57143700    1.18790800
 H                 -8.62296400   -3.17194800   -0.72184500
 H                 -6.65175000   -3.21491300   -2.24444300
 H                 -4.74516900   -1.65251100   -1.86118800
 O                 -0.03382700    0.10103300   -1.56945700
 O                 -0.21738200    0.50224500    1.12458000
 O                 -2.28519900    0.59555900    1.92063700
 O                 -1.85539100   -0.84945500   -2.42587500
 C                 -1.76647900    1.01571900    3.19288100
 C                 -1.08538500   -1.24599000   -3.57227200
 H                 -2.63807400    1.21162000    3.82467800
 H                 -1.16577800    1.92721800    3.06354200
 H                 -1.14426000    0.22497000    3.62827400
 H                 -1.77800300   -1.77585400   -4.23257700
 H                 -0.26734800   -1.90832700   -3.25850600
 H                 -0.67597200   -0.35953600   -4.07389200
 O                  3.28963400    0.43075300   -1.52258700
 O                  2.76210900    0.95204900    1.54116000
 O                  0.15167700   -2.14415600   -0.00345000
 S                  0.97376700   -2.84045100    1.02859400
 S                  3.67764100   -0.95131500   -1.95308500
 S                  2.54575700    2.34648600    1.03051700
 O                  1.95184700   -1.81270500    1.51622500
 O                  1.48214200   -4.15251200    0.72627400
 O                  2.61386900   -1.83294300   -1.38014800
 O                  4.07167200   -1.15218000   -3.31963100
 O                  1.68450700    2.19553500   -0.17618900
 O                  2.16842400    3.35014000    1.99406100
 C                  4.21802600    2.85800100    0.37403100
 C                  5.13165100   -1.30269600   -0.88235900
 C                 -0.17031700   -3.07990200    2.45148000
 F                  4.07555400    3.34589600   -0.84115000
 F                  5.03120700    1.82084300    0.34659100
 F                  4.71514400    3.78493300    1.16923200
 F                  4.75381900   -1.11828800    0.37519900
 F                  6.11268200   -0.47538100   -1.17846900
 F                  5.52491300   -2.54793200   -1.05040500
 F                 -0.84794500   -1.96385400    2.67561200
 F                  0.52877500   -3.39232900    3.52398800
 F                 -1.01255200   -4.05262200    2.16634900
 C                 -4.52866200    0.24377400    0.08344500
 H                 -4.46276800    0.52775700    1.14619800
 C                 -4.74484900    1.59491800   -0.67787100
 C                 -5.98282100    2.25562000   -0.22712200
 C                 -4.82790100    1.33013500   -2.12858500
 C                 -1.25628600    2.94519700   -0.58463400
 C                 -2.63830800    3.73006500    1.22868600
 C                 -1.37198500    3.70425900    0.52955000
 H                 -0.33665400    2.89122200   -1.16625000
 H                 -2.76117200    4.29295700    2.15667900
 H                 -0.53754200    4.30376500    0.89772200
 N                 -6.98151100    2.72515000    0.11785400
 N                 -4.87421000    1.06857100   -3.25427200
 N                 -3.58529400    2.45228600   -0.38206200
 N                 -3.68966800    3.11795800    0.78548500
 C                 -2.38003700    2.11007100   -0.97735800
 H                 -2.47615900    1.86122600   -2.04052600
 Lu                 1.57745100   -0.17918700   -0.06414200
 O                 -3.33804300   -0.35855300   -0.38057100

H     0
S    3   1.00
     13.0107010              0.19682158D-01
      1.9622572              0.13796524
      0.44453796             0.47831935
S    1   1.00
      0.12194962             1.0000000
P    1   1.00
      0.8000000              1.0000000
****
C     0
S    5   1.00
   1238.4016938              0.54568832082D-02
    186.29004992             0.40638409211D-01
     42.251176346            0.18025593888
     11.676557932            0.46315121755
      3.5930506482           0.44087173314
S    1   1.00
      0.40245147363          1.0000000
S    1   1.00
      0.13090182668          1.0000000
P    3   1.00
      9.4680970621           0.38387871728D-01
      2.0103545142           0.21117025112
      0.54771004707          0.51328172114
P    1   1.00
      0.15268613795          1.0000000
D    1   1.00
      0.8000000              1.0000000
****
N     0
S    5   1.00
   1712.8415853             -0.53934125305D-02
    257.64812677            -0.40221581118D-01
     58.458245853           -0.17931144990
     16.198367905           -0.46376317823
      5.0052600809          -0.44171422662
S    1   1.00
      0.58731856571          1.0000000
S    1   1.00
      0.18764592253          1.0000000
P    3   1.00
     13.571470233           -0.40072398852D-01
      2.9257372874          -0.21807045028
      0.79927750754         -0.51294466049
P    1   1.00
      0.21954348034          1.0000000
D    1   1.00
      1.0000000              1.0000000
****
O     0
S    5   1.00
   2266.1767785             -0.53431809926D-02
    340.87010191            -0.39890039230D-01
     77.363135167           -0.17853911985
     21.479644940           -0.46427684959
      6.6589433124          -0.44309745172
S    1   1.00
      0.80975975668          1.0000000
S    1   1.00
      0.25530772234          1.0000000
P    3   1.00
     17.721504317            0.43394573193D-01
      3.8635505440           0.23094120765
      1.0480920883           0.51375311064
P    1   1.00
      0.27641544411          1.0000000
D    1   1.00
      1.2000000              1.0000000
****
F     0
S    5   1.00
   2894.8325990             -0.53408255515D-02
    435.41939120            -0.39904258866D-01
     98.843328866           -0.17912768038
     27.485198001           -0.46758090825
      8.5405498171          -0.44653131020
S    1   1.00
      1.0654578038           1.0000000
S    1   1.00
      0.33247346748          1.0000000
P    3   1.00
     22.696633924           -0.45212874436D-01
      4.9872339257          -0.23754317067
      1.3491613954          -0.51287353587
P    1   1.00
      0.34829881977          1.0000000
D    1   1.00
      1.4000000              1.0000000
****
S     0
S    5   1.00
   9184.9303010             -0.22294387756D-02
   1381.5105503             -0.16683029937D-01
    313.87147580            -0.75262436116D-01
     88.053870623           -0.19376827038
     27.039914905           -0.17718020803
S    3   1.00
     45.648731303           -0.10736062573
      4.9664522326           0.65066293018
      2.0116242047           0.59712155354
S    1   1.00
      0.35661077013          1.0000000
S    1   1.00
      0.13507221477          1.0000000
P    5   1.00
    261.98233439            -0.92729929822D-02
     61.306894736           -0.66547669241D-01
     19.103729887           -0.24828595903
      6.6567720378          -0.48703847402
      2.3959635161          -0.39337850312
P    1   1.00
      0.61776161679          1.0000000
P    1   1.00
      0.16993376871          1.0000000
D    1   1.00
      0.5500000              1.0000000
****
Lu     0
S    5   1.00
  95169.767000               0.22000000000D-04
  15488.403000               0.14500000000D-03
   3776.2335000              0.65100000000D-03
   1079.0501000              0.20380000000D-02
    268.95380000             0.51270000000D-02
S    1   1.00
     63.467900000            1.0000000
S    1   1.00
     45.133200000            1.0000000
S    1   1.00
     21.456800000            1.0000000
S    1   1.00
      5.3483000000           1.0000000
S    1   1.00
      2.6778000000           1.0000000
S    1   1.00
      1.0287000000           1.0000000
S    1   1.00
      0.44080000000          1.0000000
S    1   1.00
      0.79100000000D-01      1.0000000
S    1   1.00
      0.31300000000D-01      1.0000000
P    3   1.00
     12.333733920           -0.15313031066
     11.080331415           -0.20300664852
      2.0341747228          -0.19458361263
P    6   1.00
   1500.5317313             -0.10192569555D-02
    382.39748937            -0.59476212135D-02
    132.99969628            -0.16265160929D-01
     46.110032419           -0.35623845839D-01
     15.583529011            0.23709171074
      5.7856677022          -0.30670977844
P    1   1.00
      3.7823361008           1.0000000
P    1   1.00
      1.3682592248           1.0000000
P    1   1.00
      0.57288205601          1.0000000
P    1   1.00
      0.22793165135          1.0000000
P    1   1.00
      0.81403917986D-01      1.0000000
P    1   1.00
      0.29091071778D-01      1.0000000
D    6   1.00
    484.52750000             0.22860000000D-02
    146.66550000             0.18629000000D-01
     56.377900000            0.74088000000D-01
     23.671100000            0.16155400000
      9.4401000000           0.30809100000
      4.3712000000           0.44833400000
D    1   1.00
      1.9580000000           1.0000000
D    1   1.00
      0.72720000000          1.0000000
D    1   1.00
      0.24600000000          1.0000000
D    1   1.00
      0.74400000000D-01      1.0000000
F    5   1.00
    175.15590000             0.41020000000D-02
     62.890900000            0.39086000000D-01
     28.362400000            0.14704400000
     13.247800000            0.27109200000
      6.1440000000           0.34566500000
F    1   1.00
      2.7623000000           1.0000000
F    1   1.00
      1.1574000000           1.0000000
F    1   1.00
      0.42440000000          1.0000000
G    1   1.00
      0.70090000000          1.0000000
****

Lu     0
Lu-ECP     5     28
h potential
  1
2      1.00000000             0.00000000
s-h potential
  1
2     35.16209700           989.99558400
p-h potential
  1
2     19.46440200           278.86565200
d-h potential
  1
2     10.00686500            71.00917800
f-h potential
  1
2     23.51793200           -47.40589000
g-h potential
  1
2     29.41223800           -35.55714600


