%chk=i2.chk
%mem=616Gb
%nprocshared=24
#P  UMN15/genecp scf=(maxcyc=500) freq scrf=(smd,solvent=DiChloroEthane)  

freq

0 2
C                  1.47881700   -0.14870100   -1.21883300
 C                  1.38116300    0.29544500    0.18022500
 C                  0.27186000   -0.25316800   -2.05736900
 O                 -0.85081000    0.03837400   -1.67369800
 O                  0.39260200    0.83721000    0.64858800
 O                  2.47029300    0.05444300    0.88634000
 O                  0.52735100   -0.68179800   -3.27243500
 C                  2.50651800    0.62897200    2.20113700
 C                 -0.59654400   -0.78809800   -4.15341800
 H                  3.54598800    0.56724600    2.54140000
 H                  1.84315200    0.06022400    2.86626000
 H                  2.18601400    1.67830700    2.15591300
 H                 -0.23685200   -1.30143200   -5.05081600
 H                 -0.96326200    0.21583700   -4.41056800
 H                 -1.41039700   -1.35072800   -3.67661100
 O                 -3.06743200   -1.58723200   -0.53277800
 O                 -1.33897700   -1.12535300    2.00874800
 O                 -1.65060800    2.89227900   -0.59041000
 S                 -1.85524600    3.64299700    0.66888400
 S                 -3.90598000   -0.96256000   -1.58121000
 S                 -0.25629900   -2.10725400    1.78018200
 O                 -2.01143600    2.69112700    1.79604500
 O                 -2.78426000    4.75505800    0.62405500
 O                 -3.81526900    0.51309400   -1.49731000
 O                 -3.85342500   -1.55394600   -2.90627300
 O                  0.22127000   -2.16956200    0.38996000
 O                  0.78560300   -2.10908400    2.80640500
 C                 -1.09101700   -3.72404300    2.02552800
 C                 -5.61094500   -1.29615300   -0.98910700
 C                 -0.23608400    4.45600300    0.99008500
 F                 -0.20746800   -4.69962900    1.82284600
 F                 -2.09476000   -3.87672900    1.18244600
 F                 -1.54668300   -3.81537700    3.26574000
 F                 -5.76487300   -0.79199100    0.23086900
 F                 -5.83583700   -2.60080500   -0.94307800
 F                 -6.49715700   -0.73457400   -1.79768900
 F                  0.71897800    3.56772000    1.22108500
 F                 -0.34235700    5.24924400    2.04628900
 F                  0.10835200    5.18818400   -0.06207700
 C                  3.88999500   -0.00285400   -1.79900700
 C                  4.84628200   -1.18862400   -1.40662400
 C                  6.25389700   -0.75954500   -1.34401300
 C                  4.73745200   -2.19620600   -2.48409800
 C                  3.01479400   -3.18906100    1.16923000
 C                  4.78689600   -1.88698100    2.11226400
 C                  3.71068900   -2.77904100    2.28969200
 H                  2.16502400   -3.86778400    1.21934400
 H                  5.38591200   -1.53080600    2.95280100
 H                  3.44091400   -3.12533400    3.28779900
 N                  7.35954700   -0.42452500   -1.37402500
 N                  4.65846600   -2.96333800   -3.34499400
 N                  4.44416300   -1.82543800   -0.11553800
 N                  5.13106200   -1.41900400    0.92998500
 C                  3.41536000   -2.68426800   -0.06682500
 H                  2.92847700   -2.95714000   -1.00448400
 H                  4.10237300    0.16200400   -2.86784400
 C                  3.98260200    1.33830900   -1.11118300
 C                  3.11572600    2.31691700   -1.62463100
 C                  4.81833700    1.65402200   -0.03556300
 C                  3.05228800    3.58056500   -1.03972100
 H                  2.48325400    2.08634200   -2.48813400
 C                  4.76921500    2.93032600    0.53136100
 H                  5.49858500    0.91636400    0.39105200
 C                  3.88034400    3.88876700    0.04300100
 H                  2.35777200    4.32522300   -1.43251700
 H                  5.42521900    3.16765800    1.37140700
 H                  3.83363600    4.87827100    0.50266600
 Yb                -2.05066400    0.56166500    0.36741000
 O                  2.59744700   -0.61904500   -1.76232800

H     0
S    3   1.00
     13.0107010              0.19682158D-01
      1.9622572              0.13796524
      0.44453796             0.47831935
S    1   1.00
      0.12194962             1.0000000
P    1   1.00
      0.8000000              1.0000000
****
C     0
S    5   1.00
   1238.4016938              0.54568832082D-02
    186.29004992             0.40638409211D-01
     42.251176346            0.18025593888
     11.676557932            0.46315121755
      3.5930506482           0.44087173314
S    1   1.00
      0.40245147363          1.0000000
S    1   1.00
      0.13090182668          1.0000000
P    3   1.00
      9.4680970621           0.38387871728D-01
      2.0103545142           0.21117025112
      0.54771004707          0.51328172114
P    1   1.00
      0.15268613795          1.0000000
D    1   1.00
      0.8000000              1.0000000
****
N     0
S    5   1.00
   1712.8415853             -0.53934125305D-02
    257.64812677            -0.40221581118D-01
     58.458245853           -0.17931144990
     16.198367905           -0.46376317823
      5.0052600809          -0.44171422662
S    1   1.00
      0.58731856571          1.0000000
S    1   1.00
      0.18764592253          1.0000000
P    3   1.00
     13.571470233           -0.40072398852D-01
      2.9257372874          -0.21807045028
      0.79927750754         -0.51294466049
P    1   1.00
      0.21954348034          1.0000000
D    1   1.00
      1.0000000              1.0000000
****
O     0
S    5   1.00
   2266.1767785             -0.53431809926D-02
    340.87010191            -0.39890039230D-01
     77.363135167           -0.17853911985
     21.479644940           -0.46427684959
      6.6589433124          -0.44309745172
S    1   1.00
      0.80975975668          1.0000000
S    1   1.00
      0.25530772234          1.0000000
P    3   1.00
     17.721504317            0.43394573193D-01
      3.8635505440           0.23094120765
      1.0480920883           0.51375311064
P    1   1.00
      0.27641544411          1.0000000
D    1   1.00
      1.2000000              1.0000000
****
F     0
S    5   1.00
   2894.8325990             -0.53408255515D-02
    435.41939120            -0.39904258866D-01
     98.843328866           -0.17912768038
     27.485198001           -0.46758090825
      8.5405498171          -0.44653131020
S    1   1.00
      1.0654578038           1.0000000
S    1   1.00
      0.33247346748          1.0000000
P    3   1.00
     22.696633924           -0.45212874436D-01
      4.9872339257          -0.23754317067
      1.3491613954          -0.51287353587
P    1   1.00
      0.34829881977          1.0000000
D    1   1.00
      1.4000000              1.0000000
****
S     0
S    5   1.00
   9184.9303010             -0.22294387756D-02
   1381.5105503             -0.16683029937D-01
    313.87147580            -0.75262436116D-01
     88.053870623           -0.19376827038
     27.039914905           -0.17718020803
S    3   1.00
     45.648731303           -0.10736062573
      4.9664522326           0.65066293018
      2.0116242047           0.59712155354
S    1   1.00
      0.35661077013          1.0000000
S    1   1.00
      0.13507221477          1.0000000
P    5   1.00
    261.98233439            -0.92729929822D-02
     61.306894736           -0.66547669241D-01
     19.103729887           -0.24828595903
      6.6567720378          -0.48703847402
      2.3959635161          -0.39337850312
P    1   1.00
      0.61776161679          1.0000000
P    1   1.00
      0.16993376871          1.0000000
D    1   1.00
      0.5500000              1.0000000
****
Yb     0
S    5   1.00
  91972.903000               0.51000000000D-04
  13787.371000               0.38600000000D-03
   3123.6135000              0.18440000000D-02
    871.47540000             0.53560000000D-02
    250.46300000             0.88590000000D-02
S    1   1.00
     58.282700000            1.0000000
S    1   1.00
     41.630500000            1.0000000
S    1   1.00
     20.216400000            1.0000000
S    1   1.00
      4.9972000000           1.0000000
S    1   1.00
      2.4822000000           1.0000000
S    1   1.00
      0.91790000000          1.0000000
S    1   1.00
      0.38530000000          1.0000000
S    1   1.00
      0.61400000000D-01      1.0000000
S    1   1.00
      0.25000000000D-01      1.0000000
P    3   1.00
     12.274108000           -0.15252141000
     10.695631000           -0.20243492000
      2.0359782000          -0.19621046000
P    6   1.00
   1497.5567000             -0.10182934000D-02
    375.04101000            -0.60919401000D-02
    128.69727000            -0.17077693000D-01
     45.270759000           -0.35655508000D-01
     14.906971000            0.23732226000
      5.6450858000          -0.30559689000
P    1   1.00
      3.6752106000           1.0000000
P    1   1.00
      1.3296961000           1.0000000
P    1   1.00
      0.55338966000          1.0000000
P    1   1.00
      0.22382350000          1.0000000
P    1   1.00
      0.68350467650D-01      1.0000000
P    1   1.00
      0.25355670803D-01      1.0000000
D    6   1.00
    469.76060000             0.19840000000D-02
    142.61280000             0.16013000000D-01
     55.126700000            0.63153000000D-01
     23.441500000            0.13780000000
      9.4951000000           0.28549800000
      4.5792000000           0.43830900000
D    1   1.00
      2.1646000000           1.0000000
D    1   1.00
      0.92380000000          1.0000000
D    1   1.00
      0.31070000000          1.0000000
D    1   1.00
      0.91400000000D-01      1.0000000
F    5   1.00
    142.02930000             0.59570000000D-02
     51.086200000            0.53180000000D-01
     22.874100000            0.17807600000
     10.502500000            0.30060000000
      4.7872000000           0.35034200000
F    1   1.00
      2.1088000000           1.0000000
F    1   1.00
      0.86090000000          1.0000000
F    1   1.00
      0.30600000000          1.0000000
G    1   1.00
      0.51330000000          1.0000000
****

Yb     0
Yb-ECP     5     28
h potential
  1
2      1.00000000             0.00000000
s-h potential
  1
2     32.42448400           891.01377700
p-h potential
  1
2     18.65623200           264.03695300
d-h potential
  1
2     10.49022200            73.92391900
f-h potential
  1
2     20.77418300           -39.59217300
g-h potential
  1
2     28.43102800           -34.63863800





























































