%chk=ts-min.chk
%mem=616Gb
%nprocshared=24
#opt=(ts,noeigentest,readfc) freq  MN15/gen scf=(maxcyc=500) scrf=(smd,solvent=DiChloroEthane) 

ts opt for i3 Going from i2 to i3, where we are forming bond 1-54

0 1
 C                 -1.63143700    0.31626500    1.14559100
 C                 -1.33086000    0.13304800   -0.24312800
 C                 -0.53059800    0.19890400    2.05367000
 O                  0.59259500   -0.27678500    1.75943200
 O                 -0.20735900   -0.03174500   -0.75740400
 O                 -2.39979700    0.05754500   -1.01974900
 O                 -0.77509200    0.49810300    3.31917900
 C                 -2.18410500   -0.14381500   -2.41736700
 C                  0.33982800    0.44605200    4.21623100
 H                 -3.17727900   -0.29241900   -2.85585500
 H                 -1.53083700   -1.01363100   -2.58109600
 H                 -1.70278700    0.74133200   -2.85204000
 H                 -0.00355800    0.89324500    5.15401200
 H                  1.18643600    1.00573600    3.79557400
 H                  0.65165200   -0.59428600    4.37921100
 O                  3.58237800   -0.81209700    0.78978600
 O                  2.22544000   -0.74437500   -1.90119200
 O                  0.66246900    2.18525200    0.56172500
 S                  1.36668500    2.89354600   -0.54078600
 S                  4.04505800    0.25279600    1.74620700
 S                  1.71841800   -2.12578800   -1.65531900
 O                  2.29010300    1.86378500   -1.12680100
 O                  1.87968400    4.21365900   -0.31226400
 O                  2.98713200    1.30057800    1.63452800
 O                  4.47284500   -0.15619800    3.05486800
 O                  1.42806300   -2.19775400   -0.19717500
 O                  0.69666300   -2.64051200   -2.54718600
 C                  3.17234900   -3.22235600   -1.91418900
 C                  5.50628900    0.98055300    0.89530300
 C                  0.05190200    3.07303200   -1.85798000
 F                  2.84796400   -4.43876000   -1.50350700
 F                  4.20635400   -2.78435100   -1.23266500
 F                  3.46398500   -3.25620100   -3.20084800
 F                  5.17589500    1.28560700   -0.34438700
 F                  6.48859200    0.09962100    0.89133000
 F                  5.88476700    2.06757700    1.53857900
 F                 -1.14636300    2.86076100   -1.31804400
 F                  0.23889300    2.19054000   -2.82221800
 F                  0.08724600    4.28922700   -2.35958700
 C                 -4.33418300    0.45160600    1.24197400
 C                 -4.51325000   -1.06224700    1.59490500
 C                 -5.86093200   -1.57266800    1.27496400
 C                 -4.36656200   -1.17700000    3.06531500
 C                 -1.22946500   -2.68683900    0.83718800
 C                 -2.87825400   -3.13735200   -0.84546800
 C                 -1.53303100   -3.23801800   -0.37795500
 H                 -0.22440100   -2.72911500    1.25747900
 H                 -3.19098500   -3.59652500   -1.78578100
 H                 -0.77233900   -3.73945200   -0.97839100
 N                 -6.93942000   -1.95630700    1.10874000
 N                 -4.24385400   -1.23048900    4.21494000
 N                 -3.48187300   -1.93837800    0.96843200
 N                 -3.81172100   -2.50361600   -0.18861700
 C                 -2.23846500   -1.94844400    1.50215700
 H                 -2.15476300   -1.65199300    2.54861000
 C                 -2.91167400    0.98792300    1.60382900
 H                 -2.90095300    2.03492900    1.25989400
 H                 -2.85676100    1.03737200    2.70071000
 Sc                 1.76778100    0.15634200    0.07873200
 H                 -4.97349600    0.92748400    2.00617700
 C                 -4.92317500    0.94497800   -0.07571300
 C                 -5.06231000    2.33578300   -0.19987500
 C                 -5.37049600    0.14028200   -1.12868900
 C                 -5.60770100    2.90922400   -1.34673200
 H                 -4.74728000    2.98737300    0.62078300
 C                 -5.92836200    0.71232000   -2.27548700
 H                 -5.27749900   -0.94441100   -1.07975300
 C                 -6.04348900    2.09639900   -2.39477200
 H                 -5.70095500    3.99489900   -1.41584900
 H                 -6.27409000    0.06191500   -3.08212300
 H                 -6.47711500    2.53940100   -3.29349300

H     0
S    3   1.00
     13.0107010              0.19682158D-01
      1.9622572              0.13796524
      0.44453796             0.47831935
S    1   1.00
      0.12194962             1.0000000
P    1   1.00
      0.8000000              1.0000000
****
C     0
S    5   1.00
   1238.4016938              0.54568832082D-02
    186.29004992             0.40638409211D-01
     42.251176346            0.18025593888
     11.676557932            0.46315121755
      3.5930506482           0.44087173314
S    1   1.00
      0.40245147363          1.0000000
S    1   1.00
      0.13090182668          1.0000000
P    3   1.00
      9.4680970621           0.38387871728D-01
      2.0103545142           0.21117025112
      0.54771004707          0.51328172114
P    1   1.00
      0.15268613795          1.0000000
D    1   1.00
      0.8000000              1.0000000
****
N     0
S    5   1.00
   1712.8415853             -0.53934125305D-02
    257.64812677            -0.40221581118D-01
     58.458245853           -0.17931144990
     16.198367905           -0.46376317823
      5.0052600809          -0.44171422662
S    1   1.00
      0.58731856571          1.0000000
S    1   1.00
      0.18764592253          1.0000000
P    3   1.00
     13.571470233           -0.40072398852D-01
      2.9257372874          -0.21807045028
      0.79927750754         -0.51294466049
P    1   1.00
      0.21954348034          1.0000000
D    1   1.00
      1.0000000              1.0000000
****
O     0
S    5   1.00
   2266.1767785             -0.53431809926D-02
    340.87010191            -0.39890039230D-01
     77.363135167           -0.17853911985
     21.479644940           -0.46427684959
      6.6589433124          -0.44309745172
S    1   1.00
      0.80975975668          1.0000000
S    1   1.00
      0.25530772234          1.0000000
P    3   1.00
     17.721504317            0.43394573193D-01
      3.8635505440           0.23094120765
      1.0480920883           0.51375311064
P    1   1.00
      0.27641544411          1.0000000
D    1   1.00
      1.2000000              1.0000000
****
F     0
S    5   1.00
   2894.8325990             -0.53408255515D-02
    435.41939120            -0.39904258866D-01
     98.843328866           -0.17912768038
     27.485198001           -0.46758090825
      8.5405498171          -0.44653131020
S    1   1.00
      1.0654578038           1.0000000
S    1   1.00
      0.33247346748          1.0000000
P    3   1.00
     22.696633924           -0.45212874436D-01
      4.9872339257          -0.23754317067
      1.3491613954          -0.51287353587
P    1   1.00
      0.34829881977          1.0000000
D    1   1.00
      1.4000000              1.0000000
****
S     0
S    5   1.00
   9184.9303010             -0.22294387756D-02
   1381.5105503             -0.16683029937D-01
    313.87147580            -0.75262436116D-01
     88.053870623           -0.19376827038
     27.039914905           -0.17718020803
S    3   1.00
     45.648731303           -0.10736062573
      4.9664522326           0.65066293018
      2.0116242047           0.59712155354
S    1   1.00
      0.35661077013          1.0000000
S    1   1.00
      0.13507221477          1.0000000
P    5   1.00
    261.98233439            -0.92729929822D-02
     61.306894736           -0.66547669241D-01
     19.103729887           -0.24828595903
      6.6567720378          -0.48703847402
      2.3959635161          -0.39337850312
P    1   1.00
      0.61776161679          1.0000000
P    1   1.00
      0.16993376871          1.0000000
D    1   1.00
      0.5500000              1.0000000
****
Sc     0
S    8   1.00
 191612.9187400              0.23076475942D-03
  28723.8503630              0.17890329946D-02
   6537.0116490              0.92990401140D-02
   1850.3097171              0.37739438011D-01
    602.38855156             0.12227148359
    216.17324766             0.28814821470
     83.712517880            0.40517543099
     32.908707189            0.20566019623
S    4   1.00
    211.34393234            -0.24527991462D-01
     65.128920139           -0.11570158142
     10.034311535            0.55995283317
      4.1596884597           0.56087765073
S    2   1.00
      6.0009041613          -0.22840494325
      0.98255784150          0.71948970378
S    1   1.00
      0.42483192773          1.0000000
S    1   1.00
      0.77185462096D-01      1.0000000
S    1   1.00
      0.30147219702D-01      1.0000000
P    6   1.00
    947.34122823             0.24737208744D-02
    224.09699732             0.19742967060D-01
     71.560334882            0.90357147549D-01
     26.444824490            0.25201602503
     10.393798285            0.39675535929
      4.1606304559           0.23208624517
P    3   1.00
     15.565737135           -0.27129423974D-01
      2.1121544865           0.55109256629
      0.84184709021          1.0090635806
P    1   1.00
      0.32297542652          1.0000000
P    1   1.00
      0.0897480              1.0000000
D    4   1.00
     30.989390993            0.11902837431D-01
      8.6905465069           0.67655856850D-01
      2.9520256337           0.21332539722
      1.0761910745           0.38391075578
D    1   1.00
      0.38338915095           .43354716259
D    1   1.00
      0.12534686113           .24509263822
D    1   1.00
      0.0410000              1.0000000
F    1   1.00
      0.3450000              1.0000000
****











