%chk=i3-minor.chk
%mem=616Gb
%nprocshared=24
#P  UMN15/genecp freq scf=(maxcyc=500) scrf=(smd,solvent=DiChloroEthane) 

freq

0 2
C                  2.0237850000     -0.8085610000     -0.6161780000
C                  1.7058040000      0.1089830000      0.6267180000
C                  0.6910190000     -1.3700380000     -1.2398730000
O                 -0.1227540000     -0.5365520000     -1.5742870000
O                  0.7169370000      0.8109740000      0.5638240000
O                 -2.6479130000     -1.7218310000     -0.6661440000
O                 -1.6350850000     -0.3186670000      2.3945480000
O                 -1.0929980000      2.6642280000     -1.0684900000
S                 -2.0530220000      3.5042490000     -0.3158370000
S                 -3.1722420000     -1.2509790000     -1.9726540000
S                 -0.7470210000     -1.5010210000      2.4824230000
O                 -2.9039870000      2.6339310000      0.5371260000
O                 -2.7159400000      4.5699710000     -1.0346230000
O                 -2.9895730000      0.2163040000     -2.0855620000
O                 -2.8401510000     -2.0555670000     -3.1321690000
O                 -0.1813280000     -1.8459350000      1.1570860000
O                  0.1965520000     -1.5168400000      3.5901250000
C                 -1.8908000000     -2.8919660000      2.8499570000
C                 -4.9891370000     -1.4193760000     -1.7721100000
C                 -0.9777390000      4.3426290000      0.9159430000
F                 -1.2346020000     -4.0359430000      2.7144870000
F                 -2.9215520000     -2.8805610000      2.0263580000
F                 -2.3263970000     -2.7879930000      4.0950640000
F                 -5.3867070000     -0.7187110000     -0.7174070000
F                 -5.3101390000     -2.6911810000     -1.5885190000
F                 -5.6116640000     -0.9670240000     -2.8490450000
F                 -0.3695090000      3.4328100000      1.6679090000
F                 -1.6986600000      5.1328030000      1.6950150000
F                 -0.0566410000      5.0699330000      0.2975160000
C                  3.7861180000      0.4623310000     -1.7464640000
C                  4.6938320000     -0.8110080000     -1.7754490000
C                  6.1248450000     -0.5200520000     -1.9432560000
C                  4.2420680000     -1.6463780000     -2.9141370000
C                  2.8680410000     -2.6822700000      0.9636700000
C                  5.2437060000     -2.6789510000      1.2597200000
C                  3.9519370000     -3.0759520000      1.6930640000
H                  1.8412930000     -2.9051560000      1.2709210000
H                  6.1465570000     -2.9501580000      1.8101870000
H                  3.8400640000     -3.6535230000      2.6108350000
N                  7.2326190000     -0.2669180000     -2.1546440000
N                  3.8551510000     -2.3087660000     -3.7795220000
N                  4.4285910000     -1.5627770000     -0.5334690000
N                  5.4447960000     -1.9320530000      0.1792090000
C                  3.0400740000     -1.9636760000     -0.3202640000
H                  2.8402640000     -2.7240060000     -1.1111880000
H                  3.8846770000      0.9351550000     -2.7354810000
C                  4.0667060000      1.4776580000     -0.6587550000
C                  3.1317340000      2.5216240000     -0.5603080000
C                  5.1532000000      1.4426810000      0.2239020000
C                  3.2670210000      3.5003490000      0.4213920000
H                  2.2782360000      2.5473200000     -1.2428580000
C                  5.2927670000      2.4333260000      1.1994590000
H                  5.9012420000      0.6484650000      0.1864300000
C                  4.3499790000      3.4568250000      1.3049790000
H                  2.5228320000      4.2951400000      0.4971110000
H                  6.1424680000      2.3954880000      1.8839430000
H                  4.4593670000      4.2232630000      2.0752420000
Yb                -1.7053030000      0.4957920000      0.0455960000
O                  2.4666380000     -0.0341930000     -1.7125670000
C                  0.5195470000     -2.8098660000     -1.5866010000
H                 -0.5220660000     -2.9463980000     -1.9024220000
H                  1.1830900000     -3.0407110000     -2.4401600000
H                  0.7615280000     -3.4910160000     -0.7601270000
C                  2.5424690000      0.1162160000      1.8660630000
H                  2.0428890000     -0.5450230000      2.5962920000
H                  3.5832330000     -0.1937910000      1.7372880000
H                  2.5118490000      1.1361570000      2.2761500000

H     0
S    3   1.00
     13.0107010              0.19682158D-01
      1.9622572              0.13796524
      0.44453796             0.47831935
S    1   1.00
      0.12194962             1.0000000
P    1   1.00
      0.8000000              1.0000000
****
C     0
S    5   1.00
   1238.4016938              0.54568832082D-02
    186.29004992             0.40638409211D-01
     42.251176346            0.18025593888
     11.676557932            0.46315121755
      3.5930506482           0.44087173314
S    1   1.00
      0.40245147363          1.0000000
S    1   1.00
      0.13090182668          1.0000000
P    3   1.00
      9.4680970621           0.38387871728D-01
      2.0103545142           0.21117025112
      0.54771004707          0.51328172114
P    1   1.00
      0.15268613795          1.0000000
D    1   1.00
      0.8000000              1.0000000
****
N     0
S    5   1.00
   1712.8415853             -0.53934125305D-02
    257.64812677            -0.40221581118D-01
     58.458245853           -0.17931144990
     16.198367905           -0.46376317823
      5.0052600809          -0.44171422662
S    1   1.00
      0.58731856571          1.0000000
S    1   1.00
      0.18764592253          1.0000000
P    3   1.00
     13.571470233           -0.40072398852D-01
      2.9257372874          -0.21807045028
      0.79927750754         -0.51294466049
P    1   1.00
      0.21954348034          1.0000000
D    1   1.00
      1.0000000              1.0000000
****
O     0
S    5   1.00
   2266.1767785             -0.53431809926D-02
    340.87010191            -0.39890039230D-01
     77.363135167           -0.17853911985
     21.479644940           -0.46427684959
      6.6589433124          -0.44309745172
S    1   1.00
      0.80975975668          1.0000000
S    1   1.00
      0.25530772234          1.0000000
P    3   1.00
     17.721504317            0.43394573193D-01
      3.8635505440           0.23094120765
      1.0480920883           0.51375311064
P    1   1.00
      0.27641544411          1.0000000
D    1   1.00
      1.2000000              1.0000000
****
F     0
S    5   1.00
   2894.8325990             -0.53408255515D-02
    435.41939120            -0.39904258866D-01
     98.843328866           -0.17912768038
     27.485198001           -0.46758090825
      8.5405498171          -0.44653131020
S    1   1.00
      1.0654578038           1.0000000
S    1   1.00
      0.33247346748          1.0000000
P    3   1.00
     22.696633924           -0.45212874436D-01
      4.9872339257          -0.23754317067
      1.3491613954          -0.51287353587
P    1   1.00
      0.34829881977          1.0000000
D    1   1.00
      1.4000000              1.0000000
****
S     0
S    5   1.00
   9184.9303010             -0.22294387756D-02
   1381.5105503             -0.16683029937D-01
    313.87147580            -0.75262436116D-01
     88.053870623           -0.19376827038
     27.039914905           -0.17718020803
S    3   1.00
     45.648731303           -0.10736062573
      4.9664522326           0.65066293018
      2.0116242047           0.59712155354
S    1   1.00
      0.35661077013          1.0000000
S    1   1.00
      0.13507221477          1.0000000
P    5   1.00
    261.98233439            -0.92729929822D-02
     61.306894736           -0.66547669241D-01
     19.103729887           -0.24828595903
      6.6567720378          -0.48703847402
      2.3959635161          -0.39337850312
P    1   1.00
      0.61776161679          1.0000000
P    1   1.00
      0.16993376871          1.0000000
D    1   1.00
      0.5500000              1.0000000
****
Yb     0
S    5   1.00
  91972.903000               0.51000000000D-04
  13787.371000               0.38600000000D-03
   3123.6135000              0.18440000000D-02
    871.47540000             0.53560000000D-02
    250.46300000             0.88590000000D-02
S    1   1.00
     58.282700000            1.0000000
S    1   1.00
     41.630500000            1.0000000
S    1   1.00
     20.216400000            1.0000000
S    1   1.00
      4.9972000000           1.0000000
S    1   1.00
      2.4822000000           1.0000000
S    1   1.00
      0.91790000000          1.0000000
S    1   1.00
      0.38530000000          1.0000000
S    1   1.00
      0.61400000000D-01      1.0000000
S    1   1.00
      0.25000000000D-01      1.0000000
P    3   1.00
     12.274108000           -0.15252141000
     10.695631000           -0.20243492000
      2.0359782000          -0.19621046000
P    6   1.00
   1497.5567000             -0.10182934000D-02
    375.04101000            -0.60919401000D-02
    128.69727000            -0.17077693000D-01
     45.270759000           -0.35655508000D-01
     14.906971000            0.23732226000
      5.6450858000          -0.30559689000
P    1   1.00
      3.6752106000           1.0000000
P    1   1.00
      1.3296961000           1.0000000
P    1   1.00
      0.55338966000          1.0000000
P    1   1.00
      0.22382350000          1.0000000
P    1   1.00
      0.68350467650D-01      1.0000000
P    1   1.00
      0.25355670803D-01      1.0000000
D    6   1.00
    469.76060000             0.19840000000D-02
    142.61280000             0.16013000000D-01
     55.126700000            0.63153000000D-01
     23.441500000            0.13780000000
      9.4951000000           0.28549800000
      4.5792000000           0.43830900000
D    1   1.00
      2.1646000000           1.0000000
D    1   1.00
      0.92380000000          1.0000000
D    1   1.00
      0.31070000000          1.0000000
D    1   1.00
      0.91400000000D-01      1.0000000
F    5   1.00
    142.02930000             0.59570000000D-02
     51.086200000            0.53180000000D-01
     22.874100000            0.17807600000
     10.502500000            0.30060000000
      4.7872000000           0.35034200000
F    1   1.00
      2.1088000000           1.0000000
F    1   1.00
      0.86090000000          1.0000000
F    1   1.00
      0.30600000000          1.0000000
G    1   1.00
      0.51330000000          1.0000000
****

Yb     0
Yb-ECP     5     28
h potential
  1
2      1.00000000             0.00000000
s-h potential
  1
2     32.42448400           891.01377700
p-h potential
  1
2     18.65623200           264.03695300
d-h potential
  1
2     10.49022200            73.92391900
f-h potential
  1
2     20.77418300           -39.59217300
g-h potential
  1
2     28.43102800           -34.63863800
















