%chk=i3-minor.chk
%mem=616Gb
%nprocshared=24
#P  MN15/gen scf=(maxcyc=500) opt scrf=(smd,solvent=DiChloroEthane)  

Opt

0 1
 C                  1.84131900   -0.95474600   -0.71959400
 C                  1.43734900   -0.27117500    0.58875200
 C                  0.56068100   -1.48521700   -1.35560800
 O                 -0.37194200   -0.72257400   -1.63488900
 O                  0.46436800    0.48904700    0.64859600
 O                 -3.05771400   -1.21292600   -0.62724000
 O                 -2.14298300   -0.13206800    1.82142600
 O                 -0.65579400    2.15975800   -1.23990700
 S                 -1.55335900    3.10563300   -0.51289300
 S                 -3.74960400   -0.47074400   -1.73190100
 S                 -1.60551600   -1.51851300    2.04922900
 O                 -2.27865700    2.23209000    0.47663600
 O                 -2.32815100    4.05003500   -1.27121200
 O                 -2.91700200    0.76205600   -1.89161900
 O                 -4.13021100   -1.20361700   -2.90715100
 O                 -0.84075000   -1.85923100    0.81832300
 O                 -0.96453100   -1.75324000    3.31998200
 C                 -3.11574300   -2.62615500    2.01976800
 C                 -5.28762000    0.12737400   -0.91448800
 C                 -0.42829600    4.09939900    0.55274800
 F                 -2.99502700   -3.50487800    1.04670400
 F                 -4.20290800   -1.90415200    1.84880500
 F                 -3.18309500   -3.25593000    3.17570100
 F                 -4.94604600    0.76270500    0.19238900
 F                 -6.04865900   -0.90702800   -0.62023100
 F                 -5.92847100    0.94566700   -1.72263600
 F                  0.19589700    3.30402500    1.39913400
 F                 -1.13815200    4.98888100    1.21708200
 F                  0.44905800    4.71526500   -0.21960400
 C                  3.75099500    0.64432700   -1.35056700
 C                  4.68351300   -0.59358300   -1.34183500
 C                  6.09032700   -0.20617800   -1.08702500
 C                  4.68047500   -1.22112900   -2.69896500
 C                  2.55406400   -3.05379900    0.53494300
 C                  4.90321700   -3.53482000    0.57337800
 C                  3.54758100   -3.78461600    1.05520700
 H                  1.51213900   -3.15711400    0.85159300
 H                  5.71976000   -4.22400100    0.80567100
 H                  3.37777800   -4.53855000    1.82523300
 N                  7.18618000    0.14348200   -0.96304700
 N                  4.62647300   -1.75030000   -3.72747000
 N                  4.22848200   -1.55801700   -0.34912600
 N                  5.21739900   -2.47848800   -0.08756500
 C                  2.87951600   -2.08222700   -0.57553000
 H                  2.86350900   -2.62789800   -1.54601700
 C                  2.33822500    0.15695800   -1.68403400
 H                  1.62095900    0.99101300   -1.66807800
 H                  2.32855400   -0.25640300   -2.70517000
 Sc                -1.51499800    0.32337300   -0.19286500
 H                  4.07136800    1.26456500   -2.20278700
 C                  3.85025100    1.51850700   -0.10261500
 C                  3.16716000    2.74513200   -0.12549500
 C                  4.61348500    1.20267400    1.03185300
 C                  3.27462100    3.64553900    0.93653800
 H                  2.55913100    3.01031200   -0.99648900
 C                  4.72280600    2.10516800    2.09227100
 H                  5.11673800    0.23916600    1.11866600
 C                  4.06091600    3.33251200    2.04705600
 H                  2.74667600    4.59944700    0.89116000
 H                  5.32930100    1.83815200    2.96063600
 H                  4.15236800    4.04021000    2.87391600
 C                  0.52128611   -2.85856814   -1.63179028
 H                 -0.33214644   -3.07581979   -2.23953580
 H                  1.41167289   -3.14337173   -2.15236524
 H                  0.45425300   -3.40509655   -0.71434095
 C                  2.25743352   -0.52359989    1.69675246
 H                  3.28353708   -0.49604956    1.39467222
 H                  2.08571550    0.22193606    2.44480932
 H                  2.02920044   -1.48941814    2.09675841

H     0
S    3   1.00
     13.0107010              0.19682158D-01
      1.9622572              0.13796524
      0.44453796             0.47831935
S    1   1.00
      0.12194962             1.0000000
P    1   1.00
      0.8000000              1.0000000
****
C     0
S    5   1.00
   1238.4016938              0.54568832082D-02
    186.29004992             0.40638409211D-01
     42.251176346            0.18025593888
     11.676557932            0.46315121755
      3.5930506482           0.44087173314
S    1   1.00
      0.40245147363          1.0000000
S    1   1.00
      0.13090182668          1.0000000
P    3   1.00
      9.4680970621           0.38387871728D-01
      2.0103545142           0.21117025112
      0.54771004707          0.51328172114
P    1   1.00
      0.15268613795          1.0000000
D    1   1.00
      0.8000000              1.0000000
****
N     0
S    5   1.00
   1712.8415853             -0.53934125305D-02
    257.64812677            -0.40221581118D-01
     58.458245853           -0.17931144990
     16.198367905           -0.46376317823
      5.0052600809          -0.44171422662
S    1   1.00
      0.58731856571          1.0000000
S    1   1.00
      0.18764592253          1.0000000
P    3   1.00
     13.571470233           -0.40072398852D-01
      2.9257372874          -0.21807045028
      0.79927750754         -0.51294466049
P    1   1.00
      0.21954348034          1.0000000
D    1   1.00
      1.0000000              1.0000000
****
O     0
S    5   1.00
   2266.1767785             -0.53431809926D-02
    340.87010191            -0.39890039230D-01
     77.363135167           -0.17853911985
     21.479644940           -0.46427684959
      6.6589433124          -0.44309745172
S    1   1.00
      0.80975975668          1.0000000
S    1   1.00
      0.25530772234          1.0000000
P    3   1.00
     17.721504317            0.43394573193D-01
      3.8635505440           0.23094120765
      1.0480920883           0.51375311064
P    1   1.00
      0.27641544411          1.0000000
D    1   1.00
      1.2000000              1.0000000
****
F     0
S    5   1.00
   2894.8325990             -0.53408255515D-02
    435.41939120            -0.39904258866D-01
     98.843328866           -0.17912768038
     27.485198001           -0.46758090825
      8.5405498171          -0.44653131020
S    1   1.00
      1.0654578038           1.0000000
S    1   1.00
      0.33247346748          1.0000000
P    3   1.00
     22.696633924           -0.45212874436D-01
      4.9872339257          -0.23754317067
      1.3491613954          -0.51287353587
P    1   1.00
      0.34829881977          1.0000000
D    1   1.00
      1.4000000              1.0000000
****
S     0
S    5   1.00
   9184.9303010             -0.22294387756D-02
   1381.5105503             -0.16683029937D-01
    313.87147580            -0.75262436116D-01
     88.053870623           -0.19376827038
     27.039914905           -0.17718020803
S    3   1.00
     45.648731303           -0.10736062573
      4.9664522326           0.65066293018
      2.0116242047           0.59712155354
S    1   1.00
      0.35661077013          1.0000000
S    1   1.00
      0.13507221477          1.0000000
P    5   1.00
    261.98233439            -0.92729929822D-02
     61.306894736           -0.66547669241D-01
     19.103729887           -0.24828595903
      6.6567720378          -0.48703847402
      2.3959635161          -0.39337850312
P    1   1.00
      0.61776161679          1.0000000
P    1   1.00
      0.16993376871          1.0000000
D    1   1.00
      0.5500000              1.0000000
****
Sc     0
S    8   1.00
 191612.9187400              0.23076475942D-03
  28723.8503630              0.17890329946D-02
   6537.0116490              0.92990401140D-02
   1850.3097171              0.37739438011D-01
    602.38855156             0.12227148359
    216.17324766             0.28814821470
     83.712517880            0.40517543099
     32.908707189            0.20566019623
S    4   1.00
    211.34393234            -0.24527991462D-01
     65.128920139           -0.11570158142
     10.034311535            0.55995283317
      4.1596884597           0.56087765073
S    2   1.00
      6.0009041613          -0.22840494325
      0.98255784150          0.71948970378
S    1   1.00
      0.42483192773          1.0000000
S    1   1.00
      0.77185462096D-01      1.0000000
S    1   1.00
      0.30147219702D-01      1.0000000
P    6   1.00
    947.34122823             0.24737208744D-02
    224.09699732             0.19742967060D-01
     71.560334882            0.90357147549D-01
     26.444824490            0.25201602503
     10.393798285            0.39675535929
      4.1606304559           0.23208624517
P    3   1.00
     15.565737135           -0.27129423974D-01
      2.1121544865           0.55109256629
      0.84184709021          1.0090635806
P    1   1.00
      0.32297542652          1.0000000
P    1   1.00
      0.0897480              1.0000000
D    4   1.00
     30.989390993            0.11902837431D-01
      8.6905465069           0.67655856850D-01
      2.9520256337           0.21332539722
      1.0761910745           0.38391075578
D    1   1.00
      0.38338915095           .43354716259
D    1   1.00
      0.12534686113           .24509263822
D    1   1.00
      0.0410000              1.0000000
F    1   1.00
      0.3450000              1.0000000
****





























































