%chk=i3-maj.chk
%mem=616Gb
%nprocshared=24
#P  MN15/gen scf=(maxcyc=500) opt scrf=(smd,solvent=DiChloroEthane)  

Opt

0 1
 C                 -5.68806700    0.69868800    0.17609600
 C                 -5.43724021    2.04852706    0.47071339
 C                 -6.48231081    2.96337738    0.58271908
 C                 -7.80272470    2.54256792    0.39640818
 C                 -8.06291306    1.20547715    0.09895922
 C                 -7.01370744    0.28694550   -0.00913738
 C                 -2.09855309   -0.45134711   -0.99066938
 C                 -2.31240895   -1.51066926   -2.06151304
 C                 -0.86251509    0.38611217   -1.28152554
 H                 -4.40267783    2.38041917    0.60489750
 H                 -6.26582183    4.01035585    0.80648736
 H                 -8.62447322    3.25757324    0.47723178
 H                 -9.08955351    0.86580982   -0.05419000
 H                 -7.26175039   -0.74894928   -0.24917120
 O                  0.14485623   -0.06044419   -1.84282864
 O                 -1.52201527   -1.82925332   -2.95007199
 O                 -3.43504337   -2.13968041   -1.91165165
 O                 -0.86966396    1.56679209   -0.75875968
 C                 -3.66966835   -3.30813667   -2.71735034
 C                  0.33746026    2.35072428   -0.85746714
 H                 -4.62850579   -3.71849401   -2.38309905
 H                 -2.85257776   -4.02774217   -2.55548311
 H                 -3.71229067   -3.02693113   -3.77781352
 H                  0.11581456    3.30749496   -0.37662406
 H                  0.60359643    2.48800913   -1.91368813
 H                  1.14852773    1.82980094   -0.33044204
 O                  2.58057339   -1.04378953   -3.49009719
 O                  0.66840348   -3.08056659   -4.50904633
 O                 -1.26213773    0.64936050   -4.04654977
 S                 -1.45810404    0.22139449   -5.45861914
 S                  2.80871306    0.19987758   -4.29651717
 S                  1.08971229   -3.78544508   -3.24932080
 O                 -0.58793333   -0.99309880   -5.62079648
 O                 -1.40619818    1.21288292   -6.49993761
 O                  1.42169391    0.70034622   -4.55020936
 O                  3.80817309    1.12986105   -3.85125748
 O                  1.00918914   -2.73034084   -2.20235434
 O                  0.48286557   -5.06216535   -2.97011209
 C                  2.91512082   -4.11540749   -3.49180528
 C                  3.33756380   -0.46696477   -5.92910249
 C                 -3.19232013   -0.47823184   -5.51034127
 F                  3.58747451   -3.61994308   -2.47420316
 F                  3.32723456   -3.56303800   -4.61518943
 F                  3.09857335   -5.41989080   -3.55059980
 F                  2.41564197   -1.32115939   -6.33933715
 F                  4.49261374   -1.08567342   -5.79353412
 F                  3.45167560    0.51904179   -6.79435308
 F                 -3.74591762   -0.37982103   -4.30840411
 F                 -3.15451065   -1.74864393   -5.86209827
 F                 -3.90875501    0.20377467   -6.37621637
 C                 -4.48276700   -0.21530800    0.07586400
 H                 -4.82121257   -1.14652266   -0.40242667
 C                 -3.87300186   -0.72373587    1.40803738
 C                 -4.90788444   -1.33458606    2.27039595
 C                 -3.20749043    0.35893727    2.17701164
 C                 -0.74136223   -2.33966206    0.14536657
 C                 -2.57381385   -3.88544305    0.46946754
 C                 -1.18263405   -3.60774897    0.13476517
 H                  0.29705906   -2.08987113   -0.07273031
 H                 -2.98725176   -4.89362673    0.38797881
 H                 -0.51370435   -4.43445202   -0.10418058
 N                 -5.73948946   -1.75923078    2.95297931
 N                 -2.65787747    1.21049691    2.73566756
 N                 -2.85571017   -1.71965819    1.08024168
 N                 -3.36093280   -2.96811644    0.91144141
 C                 -1.70760799   -1.20602317    0.35771535
 H                 -1.23203437   -0.43724932    1.01875154
 Sc                 0.36423812   -1.08801050   -3.67620363
 C                 -3.36686904    0.42086183   -0.77380747
 H                 -3.78860189    0.70790664   -1.74732825
 H                 -3.05581231    1.35377938   -0.28134364

H     0
S    3   1.00
     13.0107010              0.19682158D-01
      1.9622572              0.13796524
      0.44453796             0.47831935
S    1   1.00
      0.12194962             1.0000000
P    1   1.00
      0.8000000              1.0000000
****
C     0
S    5   1.00
   1238.4016938              0.54568832082D-02
    186.29004992             0.40638409211D-01
     42.251176346            0.18025593888
     11.676557932            0.46315121755
      3.5930506482           0.44087173314
S    1   1.00
      0.40245147363          1.0000000
S    1   1.00
      0.13090182668          1.0000000
P    3   1.00
      9.4680970621           0.38387871728D-01
      2.0103545142           0.21117025112
      0.54771004707          0.51328172114
P    1   1.00
      0.15268613795          1.0000000
D    1   1.00
      0.8000000              1.0000000
****
N     0
S    5   1.00
   1712.8415853             -0.53934125305D-02
    257.64812677            -0.40221581118D-01
     58.458245853           -0.17931144990
     16.198367905           -0.46376317823
      5.0052600809          -0.44171422662
S    1   1.00
      0.58731856571          1.0000000
S    1   1.00
      0.18764592253          1.0000000
P    3   1.00
     13.571470233           -0.40072398852D-01
      2.9257372874          -0.21807045028
      0.79927750754         -0.51294466049
P    1   1.00
      0.21954348034          1.0000000
D    1   1.00
      1.0000000              1.0000000
****
O     0
S    5   1.00
   2266.1767785             -0.53431809926D-02
    340.87010191            -0.39890039230D-01
     77.363135167           -0.17853911985
     21.479644940           -0.46427684959
      6.6589433124          -0.44309745172
S    1   1.00
      0.80975975668          1.0000000
S    1   1.00
      0.25530772234          1.0000000
P    3   1.00
     17.721504317            0.43394573193D-01
      3.8635505440           0.23094120765
      1.0480920883           0.51375311064
P    1   1.00
      0.27641544411          1.0000000
D    1   1.00
      1.2000000              1.0000000
****
F     0
S    5   1.00
   2894.8325990             -0.53408255515D-02
    435.41939120            -0.39904258866D-01
     98.843328866           -0.17912768038
     27.485198001           -0.46758090825
      8.5405498171          -0.44653131020
S    1   1.00
      1.0654578038           1.0000000
S    1   1.00
      0.33247346748          1.0000000
P    3   1.00
     22.696633924           -0.45212874436D-01
      4.9872339257          -0.23754317067
      1.3491613954          -0.51287353587
P    1   1.00
      0.34829881977          1.0000000
D    1   1.00
      1.4000000              1.0000000
****
S     0
S    5   1.00
   9184.9303010             -0.22294387756D-02
   1381.5105503             -0.16683029937D-01
    313.87147580            -0.75262436116D-01
     88.053870623           -0.19376827038
     27.039914905           -0.17718020803
S    3   1.00
     45.648731303           -0.10736062573
      4.9664522326           0.65066293018
      2.0116242047           0.59712155354
S    1   1.00
      0.35661077013          1.0000000
S    1   1.00
      0.13507221477          1.0000000
P    5   1.00
    261.98233439            -0.92729929822D-02
     61.306894736           -0.66547669241D-01
     19.103729887           -0.24828595903
      6.6567720378          -0.48703847402
      2.3959635161          -0.39337850312
P    1   1.00
      0.61776161679          1.0000000
P    1   1.00
      0.16993376871          1.0000000
D    1   1.00
      0.5500000              1.0000000
****
Sc     0
S    8   1.00
 191612.9187400              0.23076475942D-03
  28723.8503630              0.17890329946D-02
   6537.0116490              0.92990401140D-02
   1850.3097171              0.37739438011D-01
    602.38855156             0.12227148359
    216.17324766             0.28814821470
     83.712517880            0.40517543099
     32.908707189            0.20566019623
S    4   1.00
    211.34393234            -0.24527991462D-01
     65.128920139           -0.11570158142
     10.034311535            0.55995283317
      4.1596884597           0.56087765073
S    2   1.00
      6.0009041613          -0.22840494325
      0.98255784150          0.71948970378
S    1   1.00
      0.42483192773          1.0000000
S    1   1.00
      0.77185462096D-01      1.0000000
S    1   1.00
      0.30147219702D-01      1.0000000
P    6   1.00
    947.34122823             0.24737208744D-02
    224.09699732             0.19742967060D-01
     71.560334882            0.90357147549D-01
     26.444824490            0.25201602503
     10.393798285            0.39675535929
      4.1606304559           0.23208624517
P    3   1.00
     15.565737135           -0.27129423974D-01
      2.1121544865           0.55109256629
      0.84184709021          1.0090635806
P    1   1.00
      0.32297542652          1.0000000
P    1   1.00
      0.0897480              1.0000000
D    4   1.00
     30.989390993            0.11902837431D-01
      8.6905465069           0.67655856850D-01
      2.9520256337           0.21332539722
      1.0761910745           0.38391075578
D    1   1.00
      0.38338915095           .43354716259
D    1   1.00
      0.12534686113           .24509263822
D    1   1.00
      0.0410000              1.0000000
F    1   1.00
      0.3450000              1.0000000
****





























































