%chk=scan-minor
%mem=616GB
%nprocshared=24
#opt=(modred) freq UMN15/genecp scrf=(smd,solvent=DiChloroEthane)

Scan

0 2
C                  1.98822400   -0.96011700   -0.85048500
 C                  1.70022600    0.03519100    0.29763900
 C                  0.65771100   -1.52091500   -1.39921800
 O                 -0.25137200   -0.79156700   -1.73051900
 O                  0.77302800    0.81274800    0.27533500
 O                  2.58093400   -0.03534300    1.26102500
 O                  0.66537600   -2.81786100   -1.52898500
 C                  2.44236600    0.92648000    2.32365500
 C                 -0.55628900   -3.41906600   -1.99864500
 H                  3.28482600    0.75732400    3.00148700
 H                  1.48742400    0.76448400    2.83870600
 H                  2.47278200    1.93800500    1.89727500
 H                 -0.36610600   -4.49527200   -2.04565100
 H                 -0.80759000   -3.02148600   -2.99006100
 H                 -1.36143400   -3.18516900   -1.28976900
 O                 -3.07819100   -1.64897400   -0.49322200
 O                 -1.09772100   -0.07146700    2.48912200
 O                 -1.19720900    2.58444500   -1.11843200
 S                 -1.98196500    3.39849500   -0.16377900
 S                 -3.61522500   -1.14385600   -1.78423900
 S                 -0.46736600   -1.40321200    2.36860800
 O                 -2.59302200    2.50729600    0.85733600
 O                 -2.82549800    4.43955600   -0.71114700
 O                 -3.14673200    0.24589300   -2.00060900
 O                 -3.55513200   -2.05160900   -2.91188300
 O                 -0.35085300   -1.78204400    0.93367400
 O                  0.71799600   -1.65359300    3.17189200
 C                 -1.73400000   -2.57137000    3.00581000
 C                 -5.40259000   -0.92412600   -1.42886800
 C                 -0.70511500    4.29976300    0.80218000
 F                 -1.35772600   -3.81204700    2.73936500
 F                 -2.89759300   -2.33200500    2.42750100
 F                 -1.85524700   -2.42289300    4.31387900
 F                 -5.55075400   -0.12356100   -0.38129400
 F                 -5.95960900   -2.09455500   -1.15880800
 F                 -6.00980600   -0.38529100   -2.47360200
 F                  0.14173600    3.44647500    1.36214200
 F                 -1.28470000    5.01530300    1.75401800
 F                 -0.02953200    5.11639500    0.00382400
 C                  3.82838800    0.25815300   -1.89417000
 C                  4.77851800   -0.95610200   -1.61039300
 C                  6.20461900   -0.60243000   -1.54156100
 C                  4.61332400   -1.91097800   -2.73227500
 C                  2.57888100   -2.80686400    0.84994000
 C                  4.74241800   -2.30117200    1.73889600
 C                  3.47144900   -2.91216500    1.87739200
 H                  1.57323300   -3.22834700    0.90586300
 H                  5.48103000   -2.31702600    2.54281500
 H                  3.21392900   -3.43135400    2.80054100
 N                  7.32785500   -0.33215500   -1.57850000
 N                  4.48700800   -2.64552400   -3.61606100
 N                  4.31381800   -1.60538200   -0.36832600
 N                  5.13269200   -1.68273000    0.62840900
 C                  2.94941700   -2.11558900   -0.40529500
 H                  2.88783400   -2.85515900   -1.23277800
 H                  4.04546200    0.57645200   -2.92488300
 C                  3.94105200    1.46273400   -0.97711700
 C                  3.01779100    2.49201400   -1.21966400
 C                  4.89969400    1.62596600    0.03132900
 C                  3.06714600    3.67357200   -0.48094900
 H                  2.25455800    2.36265400   -1.99164800
 C                  4.95682300    2.81811000    0.75777600
 H                  5.61265200    0.83933500    0.28208800
 C                  4.04739600    3.84464900    0.50059000
 H                  2.34045500    4.46296000   -0.67779900
 H                  5.71543300    2.93548500    1.53425700
 H                  4.09455200    4.77449600    1.07140300
 Yb                -1.66788000    0.36486400    0.01012200
 O                  2.52467700   -0.29560000   -1.96622800

1 54 S 10 +0.1

H     0
S    3   1.00
     13.0107010              0.19682158D-01
      1.9622572              0.13796524
      0.44453796             0.47831935
S    1   1.00
      0.12194962             1.0000000
P    1   1.00
      0.8000000              1.0000000
****
C     0
S    5   1.00
   1238.4016938              0.54568832082D-02
    186.29004992             0.40638409211D-01
     42.251176346            0.18025593888
     11.676557932            0.46315121755
      3.5930506482           0.44087173314
S    1   1.00
      0.40245147363          1.0000000
S    1   1.00
      0.13090182668          1.0000000
P    3   1.00
      9.4680970621           0.38387871728D-01
      2.0103545142           0.21117025112
      0.54771004707          0.51328172114
P    1   1.00
      0.15268613795          1.0000000
D    1   1.00
      0.8000000              1.0000000
****
N     0
S    5   1.00
   1712.8415853             -0.53934125305D-02
    257.64812677            -0.40221581118D-01
     58.458245853           -0.17931144990
     16.198367905           -0.46376317823
      5.0052600809          -0.44171422662
S    1   1.00
      0.58731856571          1.0000000
S    1   1.00
      0.18764592253          1.0000000
P    3   1.00
     13.571470233           -0.40072398852D-01
      2.9257372874          -0.21807045028
      0.79927750754         -0.51294466049
P    1   1.00
      0.21954348034          1.0000000
D    1   1.00
      1.0000000              1.0000000
****
O     0
S    5   1.00
   2266.1767785             -0.53431809926D-02
    340.87010191            -0.39890039230D-01
     77.363135167           -0.17853911985
     21.479644940           -0.46427684959
      6.6589433124          -0.44309745172
S    1   1.00
      0.80975975668          1.0000000
S    1   1.00
      0.25530772234          1.0000000
P    3   1.00
     17.721504317            0.43394573193D-01
      3.8635505440           0.23094120765
      1.0480920883           0.51375311064
P    1   1.00
      0.27641544411          1.0000000
D    1   1.00
      1.2000000              1.0000000
****
F     0
S    5   1.00
   2894.8325990             -0.53408255515D-02
    435.41939120            -0.39904258866D-01
     98.843328866           -0.17912768038
     27.485198001           -0.46758090825
      8.5405498171          -0.44653131020
S    1   1.00
      1.0654578038           1.0000000
S    1   1.00
      0.33247346748          1.0000000
P    3   1.00
     22.696633924           -0.45212874436D-01
      4.9872339257          -0.23754317067
      1.3491613954          -0.51287353587
P    1   1.00
      0.34829881977          1.0000000
D    1   1.00
      1.4000000              1.0000000
****
S     0
S    5   1.00
   9184.9303010             -0.22294387756D-02
   1381.5105503             -0.16683029937D-01
    313.87147580            -0.75262436116D-01
     88.053870623           -0.19376827038
     27.039914905           -0.17718020803
S    3   1.00
     45.648731303           -0.10736062573
      4.9664522326           0.65066293018
      2.0116242047           0.59712155354
S    1   1.00
      0.35661077013          1.0000000
S    1   1.00
      0.13507221477          1.0000000
P    5   1.00
    261.98233439            -0.92729929822D-02
     61.306894736           -0.66547669241D-01
     19.103729887           -0.24828595903
      6.6567720378          -0.48703847402
      2.3959635161          -0.39337850312
P    1   1.00
      0.61776161679          1.0000000
P    1   1.00
      0.16993376871          1.0000000
D    1   1.00
      0.5500000              1.0000000
****
Yb     0
S    5   1.00
  91972.903000               0.51000000000D-04
  13787.371000               0.38600000000D-03
   3123.6135000              0.18440000000D-02
    871.47540000             0.53560000000D-02
    250.46300000             0.88590000000D-02
S    1   1.00
     58.282700000            1.0000000
S    1   1.00
     41.630500000            1.0000000
S    1   1.00
     20.216400000            1.0000000
S    1   1.00
      4.9972000000           1.0000000
S    1   1.00
      2.4822000000           1.0000000
S    1   1.00
      0.91790000000          1.0000000
S    1   1.00
      0.38530000000          1.0000000
S    1   1.00
      0.61400000000D-01      1.0000000
S    1   1.00
      0.25000000000D-01      1.0000000
P    3   1.00
     12.274108000           -0.15252141000
     10.695631000           -0.20243492000
      2.0359782000          -0.19621046000
P    6   1.00
   1497.5567000             -0.10182934000D-02
    375.04101000            -0.60919401000D-02
    128.69727000            -0.17077693000D-01
     45.270759000           -0.35655508000D-01
     14.906971000            0.23732226000
      5.6450858000          -0.30559689000
P    1   1.00
      3.6752106000           1.0000000
P    1   1.00
      1.3296961000           1.0000000
P    1   1.00
      0.55338966000          1.0000000
P    1   1.00
      0.22382350000          1.0000000
P    1   1.00
      0.68350467650D-01      1.0000000
P    1   1.00
      0.25355670803D-01      1.0000000
D    6   1.00
    469.76060000             0.19840000000D-02
    142.61280000             0.16013000000D-01
     55.126700000            0.63153000000D-01
     23.441500000            0.13780000000
      9.4951000000           0.28549800000
      4.5792000000           0.43830900000
D    1   1.00
      2.1646000000           1.0000000
D    1   1.00
      0.92380000000          1.0000000
D    1   1.00
      0.31070000000          1.0000000
D    1   1.00
      0.91400000000D-01      1.0000000
F    5   1.00
    142.02930000             0.59570000000D-02
     51.086200000            0.53180000000D-01
     22.874100000            0.17807600000
     10.502500000            0.30060000000
      4.7872000000           0.35034200000
F    1   1.00
      2.1088000000           1.0000000
F    1   1.00
      0.86090000000          1.0000000
F    1   1.00
      0.30600000000          1.0000000
G    1   1.00
      0.51330000000          1.0000000
****

Yb     0
Yb-ECP     5     28
h potential
  1
2      1.00000000             0.00000000
s-h potential
  1
2     32.42448400           891.01377700
p-h potential
  1
2     18.65623200           264.03695300
d-h potential
  1
2     10.49022200            73.92391900
f-h potential
  1
2     20.77418300           -39.59217300
g-h potential
  1
2     28.43102800           -34.63863800






















