%chk=i3-minor.chk
%mem=616Gb
%nprocshared=24
#P  UMN15/genecp scf=(maxcyc=500) freq scrf=(smd,solvent=DiChloroEthane)  

freq

0 1
C                 -2.25032500   -0.25087900    0.93270800
 C                 -1.64312300   -0.40192700   -0.50064900
 C                 -1.12666900    0.00128900    1.96197300
 O                 -0.01071500   -0.47755700    1.76450400
 O                 -0.62217700    0.24337300   -0.74098200
 O                  2.96734600   -1.22925200    1.23911000
 O                  2.20766400   -0.51046800   -1.85375600
 O                  0.49816600    2.19953900    0.99908100
 S                  1.24657900    3.09219800    0.06243600
 S                  3.77867000   -0.17918200    1.93654700
 S                  1.61806400   -1.89225800   -1.86532800
 O                  2.00200900    2.16243700   -0.84176600
 O                  1.95581300    4.21395800    0.61547400
 O                  3.00657800    1.08391100    1.71374900
 O                  4.27479100   -0.45986700    3.25366300
 O                  0.97076200   -2.05003800   -0.53003600
 O                  0.85046400   -2.27157200   -3.02472500
 C                  3.08574800   -3.01522100   -1.84704700
 C                  5.21554000    0.01610700    0.80377300
 C                 -0.06257000    3.81063800   -1.02441400
 F                  2.70896600   -4.19000200   -1.38117500
 F                  4.03575800   -2.51422400   -1.08449200
 F                  3.52891500   -3.14352400   -3.08168000
 F                  4.72931700    0.31082600   -0.39617800
 F                  5.89278700   -1.11065100    0.74268500
 F                  5.99302000    0.99177900    1.22080700
 F                 -0.51195500    2.89103900   -1.85804100
 F                  0.44505400    4.81719100   -1.70499900
 F                 -1.05533600    4.24031700   -0.26471000
 C                 -4.38059400    0.84579100    0.49146000
 C                 -5.09754800   -0.33917800    1.19043600
 C                 -6.50901200   -0.46302000    0.77727000
 C                 -5.11117600   -0.05262000    2.65679000
 C                 -2.28438100   -2.80222400    1.08369300
 C                 -4.46447000   -3.80227800    1.26574800
 C                 -3.02415200   -3.91768300    1.03503000
 H                 -1.20084300   -2.80194700    0.92288000
 H                 -5.07341400   -4.69037000    1.45525800
 H                 -2.58848100   -4.89686700    0.83146900
 N                 -7.62883700   -0.49299200    0.48968700
 N                 -5.06334500    0.14712300    3.79613600
 N                 -4.34846700   -1.55588900    0.91473900
 N                 -5.08919200   -2.68102600    1.21022200
 C                 -2.98407300   -1.51527000    1.44239900
 H                 -3.02986100   -1.43422800    2.55398600
 H                 -4.85274500    1.77178200    0.85171900
 C                 -4.37169400    0.85229000   -1.02603800
 C                 -3.56663500    1.84262700   -1.61210800
 C                 -5.07590000   -0.03242800   -1.85079400
 C                 -3.45146600    1.93647400   -2.99785900
 H                 -3.01684700    2.53405300   -0.96920600
 C                 -4.97496000    0.07580500   -3.23978400
 H                 -5.68277100   -0.83843300   -1.43612900
 C                 -4.16060000    1.05247200   -3.81650000
 H                 -2.80963100    2.70243300   -3.43770900
 H                 -5.52589200   -0.62270000   -3.87286600
 H                 -4.07727900    1.12462900   -4.90304000
 Lu                 1.47620600    0.18774000    0.18990500
 O                 -3.06417400    0.89277200    1.02041600
 C                 -1.44084100    0.81318500    3.15395300
 H                 -1.47664200    1.86003900    2.80414300
 H                 -2.43449400    0.58633600    3.56497300
 H                 -0.64641900    0.70347400    3.90092300
 C                 -2.18284200   -1.31509700   -1.53908900
 H                 -3.12772900   -1.79445000   -1.27523800
 H                 -2.27016600   -0.75217000   -2.48251900
 H                 -1.40204100   -2.07956000   -1.69935200

H     0
S    3   1.00
     13.0107010              0.19682158D-01
      1.9622572              0.13796524
      0.44453796             0.47831935
S    1   1.00
      0.12194962             1.0000000
P    1   1.00
      0.8000000              1.0000000
****
C     0
S    5   1.00
   1238.4016938              0.54568832082D-02
    186.29004992             0.40638409211D-01
     42.251176346            0.18025593888
     11.676557932            0.46315121755
      3.5930506482           0.44087173314
S    1   1.00
      0.40245147363          1.0000000
S    1   1.00
      0.13090182668          1.0000000
P    3   1.00
      9.4680970621           0.38387871728D-01
      2.0103545142           0.21117025112
      0.54771004707          0.51328172114
P    1   1.00
      0.15268613795          1.0000000
D    1   1.00
      0.8000000              1.0000000
****
N     0
S    5   1.00
   1712.8415853             -0.53934125305D-02
    257.64812677            -0.40221581118D-01
     58.458245853           -0.17931144990
     16.198367905           -0.46376317823
      5.0052600809          -0.44171422662
S    1   1.00
      0.58731856571          1.0000000
S    1   1.00
      0.18764592253          1.0000000
P    3   1.00
     13.571470233           -0.40072398852D-01
      2.9257372874          -0.21807045028
      0.79927750754         -0.51294466049
P    1   1.00
      0.21954348034          1.0000000
D    1   1.00
      1.0000000              1.0000000
****
O     0
S    5   1.00
   2266.1767785             -0.53431809926D-02
    340.87010191            -0.39890039230D-01
     77.363135167           -0.17853911985
     21.479644940           -0.46427684959
      6.6589433124          -0.44309745172
S    1   1.00
      0.80975975668          1.0000000
S    1   1.00
      0.25530772234          1.0000000
P    3   1.00
     17.721504317            0.43394573193D-01
      3.8635505440           0.23094120765
      1.0480920883           0.51375311064
P    1   1.00
      0.27641544411          1.0000000
D    1   1.00
      1.2000000              1.0000000
****
F     0
S    5   1.00
   2894.8325990             -0.53408255515D-02
    435.41939120            -0.39904258866D-01
     98.843328866           -0.17912768038
     27.485198001           -0.46758090825
      8.5405498171          -0.44653131020
S    1   1.00
      1.0654578038           1.0000000
S    1   1.00
      0.33247346748          1.0000000
P    3   1.00
     22.696633924           -0.45212874436D-01
      4.9872339257          -0.23754317067
      1.3491613954          -0.51287353587
P    1   1.00
      0.34829881977          1.0000000
D    1   1.00
      1.4000000              1.0000000
****
S     0
S    5   1.00
   9184.9303010             -0.22294387756D-02
   1381.5105503             -0.16683029937D-01
    313.87147580            -0.75262436116D-01
     88.053870623           -0.19376827038
     27.039914905           -0.17718020803
S    3   1.00
     45.648731303           -0.10736062573
      4.9664522326           0.65066293018
      2.0116242047           0.59712155354
S    1   1.00
      0.35661077013          1.0000000
S    1   1.00
      0.13507221477          1.0000000
P    5   1.00
    261.98233439            -0.92729929822D-02
     61.306894736           -0.66547669241D-01
     19.103729887           -0.24828595903
      6.6567720378          -0.48703847402
      2.3959635161          -0.39337850312
P    1   1.00
      0.61776161679          1.0000000
P    1   1.00
      0.16993376871          1.0000000
D    1   1.00
      0.5500000              1.0000000
****
Lu     0
S    5   1.00
  95169.767000               0.22000000000D-04
  15488.403000               0.14500000000D-03
   3776.2335000              0.65100000000D-03
   1079.0501000              0.20380000000D-02
    268.95380000             0.51270000000D-02
S    1   1.00
     63.467900000            1.0000000
S    1   1.00
     45.133200000            1.0000000
S    1   1.00
     21.456800000            1.0000000
S    1   1.00
      5.3483000000           1.0000000
S    1   1.00
      2.6778000000           1.0000000
S    1   1.00
      1.0287000000           1.0000000
S    1   1.00
      0.44080000000          1.0000000
S    1   1.00
      0.79100000000D-01      1.0000000
S    1   1.00
      0.31300000000D-01      1.0000000
P    3   1.00
     12.333733920           -0.15313031066
     11.080331415           -0.20300664852
      2.0341747228          -0.19458361263
P    6   1.00
   1500.5317313             -0.10192569555D-02
    382.39748937            -0.59476212135D-02
    132.99969628            -0.16265160929D-01
     46.110032419           -0.35623845839D-01
     15.583529011            0.23709171074
      5.7856677022          -0.30670977844
P    1   1.00
      3.7823361008           1.0000000
P    1   1.00
      1.3682592248           1.0000000
P    1   1.00
      0.57288205601          1.0000000
P    1   1.00
      0.22793165135          1.0000000
P    1   1.00
      0.81403917986D-01      1.0000000
P    1   1.00
      0.29091071778D-01      1.0000000
D    6   1.00
    484.52750000             0.22860000000D-02
    146.66550000             0.18629000000D-01
     56.377900000            0.74088000000D-01
     23.671100000            0.16155400000
      9.4401000000           0.30809100000
      4.3712000000           0.44833400000
D    1   1.00
      1.9580000000           1.0000000
D    1   1.00
      0.72720000000          1.0000000
D    1   1.00
      0.24600000000          1.0000000
D    1   1.00
      0.74400000000D-01      1.0000000
F    5   1.00
    175.15590000             0.41020000000D-02
     62.890900000            0.39086000000D-01
     28.362400000            0.14704400000
     13.247800000            0.27109200000
      6.1440000000           0.34566500000
F    1   1.00
      2.7623000000           1.0000000
F    1   1.00
      1.1574000000           1.0000000
F    1   1.00
      0.42440000000          1.0000000
G    1   1.00
      0.70090000000          1.0000000
****

Lu     0
Lu-ECP     5     28
h potential
  1
2      1.00000000             0.00000000
s-h potential
  1
2     35.16209700           989.99558400
p-h potential
  1
2     19.46440200           278.86565200
d-h potential
  1
2     10.00686500            71.00917800
f-h potential
  1
2     23.51793200           -47.40589000
g-h potential
  1
2     29.41223800           -35.55714600




