%chk=scan-TS2.chk
%mem=616Gb
%nprocshared=24
#P  UMN15/genecp scf=(maxcyc=500) opt=modred freq scrf=(smd,solvent=DiChloroEthane)  

Scan

0 1
 C                 -5.65055900    0.52221700   -0.23323000
 C                 -6.46686900    0.32641600   -1.35364700
 C                 -7.69671200    0.97930700   -1.44490700
 C                 -8.11048400    1.83450400   -0.42036000
 C                 -7.29230300    2.03845000    0.69390500
 C                 -6.06268400    1.38516700    0.79024300
 C                 -2.06148800    0.40744800    0.38122000
 C                 -1.48007000    0.77350500   -0.85723800
 C                 -1.29106600   -0.03759800    1.47598300
 H                 -6.13294300   -0.33610300   -2.15711400
 H                 -8.32888000    0.82634200   -2.32211000
 H                 -9.07092500    2.34962800   -0.49401000
 H                 -7.61047600    2.71346300    1.49131300
 H                 -5.41161000    1.55135200    1.65107400
 O                 -0.03899700   -0.19604200    1.49718700
 O                 -0.25138700    0.73203200   -1.12616100
 O                 -2.33644900    1.15418800   -1.79483000
 O                 -1.99874900   -0.33326800    2.56458000
 C                 -1.81783100    1.39621800   -3.10196600
 C                 -1.29339800   -0.75236200    3.72835100
 H                 -2.67742700    1.65862000   -3.72790400
 H                 -1.32656900    0.49382600   -3.49306300
 H                 -1.09554500    2.22178000   -3.08962600
 H                 -2.05638100   -0.95802200    4.48840300
 H                 -0.62043700    0.04157300    4.08088400
 H                 -0.70115000   -1.65783400    3.52848300
 O                  2.94834200   -1.29566700    1.00898800
 O                  2.41802800   -0.36044200   -1.93133900
 O                  0.80437100    2.45705200    1.02920100
 S                  1.70107300    3.29101500    0.18243900
 S                  3.77878400   -0.38787000    1.85877200
 S                  1.72255000   -1.68126900   -2.01597500
 O                  2.33906000    2.34957400   -0.79344200
 O                  2.56364600    4.24491600    0.83328900
 O                  3.12108800    0.94917700    1.76198000
 O                  4.17925100   -0.85880300    3.15777500
 O                  0.91276500   -1.80678500   -0.77353300
 O                  1.06901100   -2.01251400   -3.26066300
 C                  3.08662400   -2.93581700   -1.82059600
 C                  5.30808200   -0.17282900    0.86153900
 C                  0.55702500    4.31529900   -0.84429400
 F                  2.68897400   -3.87641600   -0.98091800
 F                  4.18014400   -2.36382100   -1.35961200
 F                  3.33950800   -3.47822900   -2.99673600
 F                  4.96343800    0.29156100   -0.33047400
 F                  5.91979400   -1.33321900    0.72578700
 F                  6.11052500    0.68755500    1.45680500
 F                 -0.52675200    3.62664300   -1.16059200
 F                  1.17667500    4.68909200   -1.94845000
 F                  0.20505200    5.38221000   -0.15133200
 C                 -4.32426800   -0.19161900   -0.13550000
 H                 -3.95789100   -0.45141600   -1.14090000
 C                 -4.50675900   -1.59319400    0.60181000
 C                 -5.55240500   -2.38895300   -0.06442900
 C                 -4.87316400   -1.34676300    2.00397300
 C                 -1.45379400   -3.65846100    1.37992300
 C                 -1.69013000   -3.15078600   -0.94885600
 C                 -0.95310300   -3.75125000    0.09829900
 H                 -0.95940700   -4.11086900    2.23966200
 H                 -1.35279000   -3.19779900   -1.98637800
 H                 -0.01832200   -4.26691900   -0.12197500
 N                 -6.35877300   -3.01228900   -0.61083800
 N                 -5.18000900   -1.12787700    3.09715500
 N                 -3.23699300   -2.38796800    0.50890200
 N                 -2.80623600   -2.49402000   -0.73668900
 C                 -2.64498800   -2.95013900    1.56579000
 H                 -3.11938100   -2.83104000    2.54133600
 Lu                 1.53411600    0.36256700    0.09654000
 O                 -3.42256100    0.58849300    0.57918100

51 53 S 15 +0.1

H     0
S    3   1.00
     13.0107010              0.19682158D-01
      1.9622572              0.13796524
      0.44453796             0.47831935
S    1   1.00
      0.12194962             1.0000000
P    1   1.00
      0.8000000              1.0000000
****
C     0
S    5   1.00
   1238.4016938              0.54568832082D-02
    186.29004992             0.40638409211D-01
     42.251176346            0.18025593888
     11.676557932            0.46315121755
      3.5930506482           0.44087173314
S    1   1.00
      0.40245147363          1.0000000
S    1   1.00
      0.13090182668          1.0000000
P    3   1.00
      9.4680970621           0.38387871728D-01
      2.0103545142           0.21117025112
      0.54771004707          0.51328172114
P    1   1.00
      0.15268613795          1.0000000
D    1   1.00
      0.8000000              1.0000000
****
N     0
S    5   1.00
   1712.8415853             -0.53934125305D-02
    257.64812677            -0.40221581118D-01
     58.458245853           -0.17931144990
     16.198367905           -0.46376317823
      5.0052600809          -0.44171422662
S    1   1.00
      0.58731856571          1.0000000
S    1   1.00
      0.18764592253          1.0000000
P    3   1.00
     13.571470233           -0.40072398852D-01
      2.9257372874          -0.21807045028
      0.79927750754         -0.51294466049
P    1   1.00
      0.21954348034          1.0000000
D    1   1.00
      1.0000000              1.0000000
****
O     0
S    5   1.00
   2266.1767785             -0.53431809926D-02
    340.87010191            -0.39890039230D-01
     77.363135167           -0.17853911985
     21.479644940           -0.46427684959
      6.6589433124          -0.44309745172
S    1   1.00
      0.80975975668          1.0000000
S    1   1.00
      0.25530772234          1.0000000
P    3   1.00
     17.721504317            0.43394573193D-01
      3.8635505440           0.23094120765
      1.0480920883           0.51375311064
P    1   1.00
      0.27641544411          1.0000000
D    1   1.00
      1.2000000              1.0000000
****
F     0
S    5   1.00
   2894.8325990             -0.53408255515D-02
    435.41939120            -0.39904258866D-01
     98.843328866           -0.17912768038
     27.485198001           -0.46758090825
      8.5405498171          -0.44653131020
S    1   1.00
      1.0654578038           1.0000000
S    1   1.00
      0.33247346748          1.0000000
P    3   1.00
     22.696633924           -0.45212874436D-01
      4.9872339257          -0.23754317067
      1.3491613954          -0.51287353587
P    1   1.00
      0.34829881977          1.0000000
D    1   1.00
      1.4000000              1.0000000
****
S     0
S    5   1.00
   9184.9303010             -0.22294387756D-02
   1381.5105503             -0.16683029937D-01
    313.87147580            -0.75262436116D-01
     88.053870623           -0.19376827038
     27.039914905           -0.17718020803
S    3   1.00
     45.648731303           -0.10736062573
      4.9664522326           0.65066293018
      2.0116242047           0.59712155354
S    1   1.00
      0.35661077013          1.0000000
S    1   1.00
      0.13507221477          1.0000000
P    5   1.00
    261.98233439            -0.92729929822D-02
     61.306894736           -0.66547669241D-01
     19.103729887           -0.24828595903
      6.6567720378          -0.48703847402
      2.3959635161          -0.39337850312
P    1   1.00
      0.61776161679          1.0000000
P    1   1.00
      0.16993376871          1.0000000
D    1   1.00
      0.5500000              1.0000000
****
Lu     0
S    5   1.00
  95169.767000               0.22000000000D-04
  15488.403000               0.14500000000D-03
   3776.2335000              0.65100000000D-03
   1079.0501000              0.20380000000D-02
    268.95380000             0.51270000000D-02
S    1   1.00
     63.467900000            1.0000000
S    1   1.00
     45.133200000            1.0000000
S    1   1.00
     21.456800000            1.0000000
S    1   1.00
      5.3483000000           1.0000000
S    1   1.00
      2.6778000000           1.0000000
S    1   1.00
      1.0287000000           1.0000000
S    1   1.00
      0.44080000000          1.0000000
S    1   1.00
      0.79100000000D-01      1.0000000
S    1   1.00
      0.31300000000D-01      1.0000000
P    3   1.00
     12.333733920           -0.15313031066
     11.080331415           -0.20300664852
      2.0341747228          -0.19458361263
P    6   1.00
   1500.5317313             -0.10192569555D-02
    382.39748937            -0.59476212135D-02
    132.99969628            -0.16265160929D-01
     46.110032419           -0.35623845839D-01
     15.583529011            0.23709171074
      5.7856677022          -0.30670977844
P    1   1.00
      3.7823361008           1.0000000
P    1   1.00
      1.3682592248           1.0000000
P    1   1.00
      0.57288205601          1.0000000
P    1   1.00
      0.22793165135          1.0000000
P    1   1.00
      0.81403917986D-01      1.0000000
P    1   1.00
      0.29091071778D-01      1.0000000
D    6   1.00
    484.52750000             0.22860000000D-02
    146.66550000             0.18629000000D-01
     56.377900000            0.74088000000D-01
     23.671100000            0.16155400000
      9.4401000000           0.30809100000
      4.3712000000           0.44833400000
D    1   1.00
      1.9580000000           1.0000000
D    1   1.00
      0.72720000000          1.0000000
D    1   1.00
      0.24600000000          1.0000000
D    1   1.00
      0.74400000000D-01      1.0000000
F    5   1.00
    175.15590000             0.41020000000D-02
     62.890900000            0.39086000000D-01
     28.362400000            0.14704400000
     13.247800000            0.27109200000
      6.1440000000           0.34566500000
F    1   1.00
      2.7623000000           1.0000000
F    1   1.00
      1.1574000000           1.0000000
F    1   1.00
      0.42440000000          1.0000000
G    1   1.00
      0.70090000000          1.0000000
****

Lu     0
Lu-ECP     5     28
h potential
  1
2      1.00000000             0.00000000
s-h potential
  1
2     35.16209700           989.99558400
p-h potential
  1
2     19.46440200           278.86565200
d-h potential
  1
2     10.00686500            71.00917800
f-h potential
  1
2     23.51793200           -47.40589000
g-h potential
  1
2     29.41223800           -35.55714600


