%chk=ts-ketone.chk
%mem=616Gb
%nprocshared=24
#opt=(calcfc,modred) freq MN15/gen scf=(maxcyc=500) scrf=(smd,solvent=DiChloroEthane)  

ts opt for i3 Going from i2 to i3, where we are forming bond 7-66

0 1
 C                 -5.69197700   -0.75339200   -0.40937000
 C                 -5.92405600   -1.46930700   -1.59299300
 C                 -7.11880300   -2.17069900   -1.77033500
 C                 -8.09302400   -2.16757900   -0.76994100
 C                 -7.86968200   -1.45819000    0.41252100
 C                 -6.67690600   -0.75664100    0.58932400
 C                 -1.79644800   -0.06188100   -0.41511500
 C                 -1.36128500    0.17043300    0.95219100
 C                 -0.73272500   -0.36920800   -1.36872300
 H                 -5.17713800   -1.48404700   -2.39023300
 H                 -7.28636800   -2.72376400   -2.69711700
 H                 -9.02526800   -2.71902600   -0.91124900
 H                 -8.62477300   -1.45235700    1.20165300
 H                 -6.50024300   -0.20052300    1.51451900
 O                  0.46769700   -0.06713700   -1.20627600
 O                 -0.18832400    0.42671300    1.30997400
 O                  3.19678500   -0.13114900   -2.99179500
 O                  2.64340400    1.35100500    1.92952100
 O                  0.88344800   -2.15416700    0.39602300
 S                  1.52968500   -2.58465300    1.67226700
 S                  3.44318500   -1.17102400   -2.01229200
 S                  2.64413800    2.55821800    1.04066900
 O                  2.18520200   -1.33439500    2.18369200
 O                  2.30176900   -3.79716900    1.68235700
 O                  3.27655100   -0.67447900   -0.58108300
 O                  2.85628500   -2.48271100   -2.21243400
 O                  2.01645700    2.06695300   -0.22666800
 O                  2.17434900    3.80428500    1.58908900
 C                  4.41668700    2.81250000    0.61152800
 C                  5.26066300   -1.44207300   -2.01031900
 C                  0.11101500   -2.86672700    2.84481400
 F                  4.49498000    3.74436000   -0.31757500
 F                  4.92325000    1.68368500    0.16028900
 F                  5.06558700    3.19796200    1.69173100
 F                  5.58616900   -2.31918800   -1.07648000
 F                  5.88797400   -0.30170600   -1.77721200
 F                  5.62451800   -1.90711100   -3.19400300
 F                 -0.99333200   -2.34189900    2.33665800
 F                  0.37488000   -2.29183000    4.00132400
 F                 -0.05695100   -4.15981300    3.01436800
 C                 -4.42252100    0.04221200   -0.17409200
 H                 -4.35266600    0.24717700    0.90270400
 C                 -4.52171300    1.47090800   -0.80408200
 C                 -5.68699600    2.19245000   -0.25465700
 C                 -4.67348300    1.39277700   -2.27338200
 C                 -0.97400000    2.65372600   -0.79526600
 C                 -2.24391400    3.47920900    1.07355000
 C                 -1.02025300    3.43105300    0.31666800
 H                 -0.08720000    2.57779600   -1.42403900
 H                 -2.31485200    4.04919500    2.00233800
 H                 -0.16114800    4.02186600    0.63872900
 N                 -6.63758000    2.70574500    0.15764300
 N                 -4.77497900    1.29139500   -3.42131400
 N                 -3.29214300    2.21659100   -0.47990200
 N                 -3.33453000    2.89519100    0.67480300
 C                 -2.12823900    1.84140300   -1.10546700
 H                 -2.26605500    1.48563500   -2.13269400
 Sc                 1.68533600   -0.03071100    0.49629100
 C                 -3.16157500   -0.70354900   -0.65218700
 H                 -3.18537200   -1.69659900   -0.17548600
 H                 -3.24749700   -0.87937300   -1.73425900
 C                 -2.38426404    0.17435508    1.91001168
 H                 -3.05479490    0.98443836    1.71239222
 H                 -2.91950382   -0.75101007    1.86399315
 H                 -1.95956025    0.29263156    2.88496674
 C                 -1.15109531   -0.91461271   -2.58996088
 H                 -1.68779369   -1.82259151   -2.40987937
 H                 -1.78840159   -0.21723779   -3.09236403
 H                 -0.29652548   -1.12043725   -3.20008108

7 56  f
56 7 f

H     0
S    3   1.00
     13.0107010              0.19682158D-01
      1.9622572              0.13796524
      0.44453796             0.47831935
S    1   1.00
      0.12194962             1.0000000
P    1   1.00
      0.8000000              1.0000000
****
C     0
S    5   1.00
   1238.4016938              0.54568832082D-02
    186.29004992             0.40638409211D-01
     42.251176346            0.18025593888
     11.676557932            0.46315121755
      3.5930506482           0.44087173314
S    1   1.00
      0.40245147363          1.0000000
S    1   1.00
      0.13090182668          1.0000000
P    3   1.00
      9.4680970621           0.38387871728D-01
      2.0103545142           0.21117025112
      0.54771004707          0.51328172114
P    1   1.00
      0.15268613795          1.0000000
D    1   1.00
      0.8000000              1.0000000
****
N     0
S    5   1.00
   1712.8415853             -0.53934125305D-02
    257.64812677            -0.40221581118D-01
     58.458245853           -0.17931144990
     16.198367905           -0.46376317823
      5.0052600809          -0.44171422662
S    1   1.00
      0.58731856571          1.0000000
S    1   1.00
      0.18764592253          1.0000000
P    3   1.00
     13.571470233           -0.40072398852D-01
      2.9257372874          -0.21807045028
      0.79927750754         -0.51294466049
P    1   1.00
      0.21954348034          1.0000000
D    1   1.00
      1.0000000              1.0000000
****
O     0
S    5   1.00
   2266.1767785             -0.53431809926D-02
    340.87010191            -0.39890039230D-01
     77.363135167           -0.17853911985
     21.479644940           -0.46427684959
      6.6589433124          -0.44309745172
S    1   1.00
      0.80975975668          1.0000000
S    1   1.00
      0.25530772234          1.0000000
P    3   1.00
     17.721504317            0.43394573193D-01
      3.8635505440           0.23094120765
      1.0480920883           0.51375311064
P    1   1.00
      0.27641544411          1.0000000
D    1   1.00
      1.2000000              1.0000000
****
F     0
S    5   1.00
   2894.8325990             -0.53408255515D-02
    435.41939120            -0.39904258866D-01
     98.843328866           -0.17912768038
     27.485198001           -0.46758090825
      8.5405498171          -0.44653131020
S    1   1.00
      1.0654578038           1.0000000
S    1   1.00
      0.33247346748          1.0000000
P    3   1.00
     22.696633924           -0.45212874436D-01
      4.9872339257          -0.23754317067
      1.3491613954          -0.51287353587
P    1   1.00
      0.34829881977          1.0000000
D    1   1.00
      1.4000000              1.0000000
****
S     0
S    5   1.00
   9184.9303010             -0.22294387756D-02
   1381.5105503             -0.16683029937D-01
    313.87147580            -0.75262436116D-01
     88.053870623           -0.19376827038
     27.039914905           -0.17718020803
S    3   1.00
     45.648731303           -0.10736062573
      4.9664522326           0.65066293018
      2.0116242047           0.59712155354
S    1   1.00
      0.35661077013          1.0000000
S    1   1.00
      0.13507221477          1.0000000
P    5   1.00
    261.98233439            -0.92729929822D-02
     61.306894736           -0.66547669241D-01
     19.103729887           -0.24828595903
      6.6567720378          -0.48703847402
      2.3959635161          -0.39337850312
P    1   1.00
      0.61776161679          1.0000000
P    1   1.00
      0.16993376871          1.0000000
D    1   1.00
      0.5500000              1.0000000
****
Sc     0
S    8   1.00
 191612.9187400              0.23076475942D-03
  28723.8503630              0.17890329946D-02
   6537.0116490              0.92990401140D-02
   1850.3097171              0.37739438011D-01
    602.38855156             0.12227148359
    216.17324766             0.28814821470
     83.712517880            0.40517543099
     32.908707189            0.20566019623
S    4   1.00
    211.34393234            -0.24527991462D-01
     65.128920139           -0.11570158142
     10.034311535            0.55995283317
      4.1596884597           0.56087765073
S    2   1.00
      6.0009041613          -0.22840494325
      0.98255784150          0.71948970378
S    1   1.00
      0.42483192773          1.0000000
S    1   1.00
      0.77185462096D-01      1.0000000
S    1   1.00
      0.30147219702D-01      1.0000000
P    6   1.00
    947.34122823             0.24737208744D-02
    224.09699732             0.19742967060D-01
     71.560334882            0.90357147549D-01
     26.444824490            0.25201602503
     10.393798285            0.39675535929
      4.1606304559           0.23208624517
P    3   1.00
     15.565737135           -0.27129423974D-01
      2.1121544865           0.55109256629
      0.84184709021          1.0090635806
P    1   1.00
      0.32297542652          1.0000000
P    1   1.00
      0.0897480              1.0000000
D    4   1.00
     30.989390993            0.11902837431D-01
      8.6905465069           0.67655856850D-01
      2.9520256337           0.21332539722
      1.0761910745           0.38391075578
D    1   1.00
      0.38338915095           .43354716259
D    1   1.00
      0.12534686113           .24509263822
D    1   1.00
      0.0410000              1.0000000
F    1   1.00
      0.3450000              1.0000000
****

--link1--
%chk=ts-ketone.chk
%mem=616Gb
%nprocshared=24
#opt=(ts,noeigentest,readfc,modred) freq  MN15/gen scf=(maxcyc=500) scrf=(smd,solvent=DiChloroEthane) geom=check guess=read  

ts3 opt

0 1

7 56 a
56 7 a

H     0
S    3   1.00
     13.0107010              0.19682158D-01
      1.9622572              0.13796524
      0.44453796             0.47831935
S    1   1.00
      0.12194962             1.0000000
P    1   1.00
      0.8000000              1.0000000
****
C     0
S    5   1.00
   1238.4016938              0.54568832082D-02
    186.29004992             0.40638409211D-01
     42.251176346            0.18025593888
     11.676557932            0.46315121755
      3.5930506482           0.44087173314
S    1   1.00
      0.40245147363          1.0000000
S    1   1.00
      0.13090182668          1.0000000
P    3   1.00
      9.4680970621           0.38387871728D-01
      2.0103545142           0.21117025112
      0.54771004707          0.51328172114
P    1   1.00
      0.15268613795          1.0000000
D    1   1.00
      0.8000000              1.0000000
****
N     0
S    5   1.00
   1712.8415853             -0.53934125305D-02
    257.64812677            -0.40221581118D-01
     58.458245853           -0.17931144990
     16.198367905           -0.46376317823
      5.0052600809          -0.44171422662
S    1   1.00
      0.58731856571          1.0000000
S    1   1.00
      0.18764592253          1.0000000
P    3   1.00
     13.571470233           -0.40072398852D-01
      2.9257372874          -0.21807045028
      0.79927750754         -0.51294466049
P    1   1.00
      0.21954348034          1.0000000
D    1   1.00
      1.0000000              1.0000000
****
O     0
S    5   1.00
   2266.1767785             -0.53431809926D-02
    340.87010191            -0.39890039230D-01
     77.363135167           -0.17853911985
     21.479644940           -0.46427684959
      6.6589433124          -0.44309745172
S    1   1.00
      0.80975975668          1.0000000
S    1   1.00
      0.25530772234          1.0000000
P    3   1.00
     17.721504317            0.43394573193D-01
      3.8635505440           0.23094120765
      1.0480920883           0.51375311064
P    1   1.00
      0.27641544411          1.0000000
D    1   1.00
      1.2000000              1.0000000
****
F     0
S    5   1.00
   2894.8325990             -0.53408255515D-02
    435.41939120            -0.39904258866D-01
     98.843328866           -0.17912768038
     27.485198001           -0.46758090825
      8.5405498171          -0.44653131020
S    1   1.00
      1.0654578038           1.0000000
S    1   1.00
      0.33247346748          1.0000000
P    3   1.00
     22.696633924           -0.45212874436D-01
      4.9872339257          -0.23754317067
      1.3491613954          -0.51287353587
P    1   1.00
      0.34829881977          1.0000000
D    1   1.00
      1.4000000              1.0000000
****
S     0
S    5   1.00
   9184.9303010             -0.22294387756D-02
   1381.5105503             -0.16683029937D-01
    313.87147580            -0.75262436116D-01
     88.053870623           -0.19376827038
     27.039914905           -0.17718020803
S    3   1.00
     45.648731303           -0.10736062573
      4.9664522326           0.65066293018
      2.0116242047           0.59712155354
S    1   1.00
      0.35661077013          1.0000000
S    1   1.00
      0.13507221477          1.0000000
P    5   1.00
    261.98233439            -0.92729929822D-02
     61.306894736           -0.66547669241D-01
     19.103729887           -0.24828595903
      6.6567720378          -0.48703847402
      2.3959635161          -0.39337850312
P    1   1.00
      0.61776161679          1.0000000
P    1   1.00
      0.16993376871          1.0000000
D    1   1.00
      0.5500000              1.0000000
****
Sc     0
S    8   1.00
 191612.9187400              0.23076475942D-03
  28723.8503630              0.17890329946D-02
   6537.0116490              0.92990401140D-02
   1850.3097171              0.37739438011D-01
    602.38855156             0.12227148359
    216.17324766             0.28814821470
     83.712517880            0.40517543099
     32.908707189            0.20566019623
S    4   1.00
    211.34393234            -0.24527991462D-01
     65.128920139           -0.11570158142
     10.034311535            0.55995283317
      4.1596884597           0.56087765073
S    2   1.00
      6.0009041613          -0.22840494325
      0.98255784150          0.71948970378
S    1   1.00
      0.42483192773          1.0000000
S    1   1.00
      0.77185462096D-01      1.0000000
S    1   1.00
      0.30147219702D-01      1.0000000
P    6   1.00
    947.34122823             0.24737208744D-02
    224.09699732             0.19742967060D-01
     71.560334882            0.90357147549D-01
     26.444824490            0.25201602503
     10.393798285            0.39675535929
      4.1606304559           0.23208624517
P    3   1.00
     15.565737135           -0.27129423974D-01
      2.1121544865           0.55109256629
      0.84184709021          1.0090635806
P    1   1.00
      0.32297542652          1.0000000
P    1   1.00
      0.0897480              1.0000000
D    4   1.00
     30.989390993            0.11902837431D-01
      8.6905465069           0.67655856850D-01
      2.9520256337           0.21332539722
      1.0761910745           0.38391075578
D    1   1.00
      0.38338915095           .43354716259
D    1   1.00
      0.12534686113           .24509263822
D    1   1.00
      0.0410000              1.0000000
F    1   1.00
      0.3450000              1.0000000
****







































































