%chk=i2.chk
%mem=616Gb
%nprocshared=24
#P  UMN15/genecp scf=(maxcyc=500) opt freq scrf=(smd,solvent=DiChloroEthane)  

Opt

0 1
C                 -2.15621500    0.37167300    0.93467300
 C                 -1.76401100    0.67836500   -0.39890500
 C                 -1.21428100    0.05924300    1.94894700
 O                 -0.02287900   -0.30861400    1.68905900
 O                 -0.59183100    0.46767100   -0.84175200
 O                  3.05298800   -1.16565800    0.99407700
 O                  2.25851000   -0.44062800   -1.92259000
 O                  0.51942000    2.37460000    0.92680600
 S                  1.31130500    3.19155300   -0.03139300
 S                  3.76004000   -0.14065700    1.82207100
 S                  1.79243400   -1.85900300   -1.89134400
 O                  2.07883500    2.22085000   -0.87315000
 O                  2.02482600    4.33410400    0.48123300
 O                  2.90526600    1.07941500    1.75589100
 O                  4.27295000   -0.54819000    3.10346100
 O                  1.00492400   -2.01057200   -0.63757400
 O                  1.19867200   -2.38832100   -3.09900300
 C                  3.34511700   -2.86331200   -1.62368100
 C                  5.20543300    0.30391500    0.77728000
 C                  0.03984900    3.88665200   -1.20125500
 F                  3.16641100   -3.68049500   -0.60480500
 F                  4.37164400   -2.07105300   -1.38968000
 F                  3.58073600   -3.56947700   -2.71446300
 F                  4.75793800    0.68614800   -0.40897400
 F                  5.99729000   -0.74216000    0.63705500
 F                  5.87310100    1.29407500    1.33823500
 F                 -0.05988600    3.12699700   -2.27672900
 F                  0.39464400    5.10564600   -1.55972700
 F                 -1.13289200    3.93367500   -0.59037300
 C                 -4.60378700   -0.08277000    1.18021200
 C                 -4.35311100   -1.63864700    1.31736100
 C                 -5.61916500   -2.37503200    1.11728500
 C                 -3.95044200   -1.88848900    2.71570000
 C                 -1.43109300   -3.50980000   -0.12986200
 C                 -2.67833300   -2.30444100   -1.77402200
 C                 -1.59099200   -3.13763500   -1.45231900
 H                 -0.61117300   -4.14362500    0.20604700
 H                 -2.86906800   -1.97254000   -2.79689800
 H                 -0.89211700   -3.45289900   -2.22816700
 N                 -6.60180800   -2.97147400    0.99243700
 N                 -3.69903100   -2.08132800    3.82771700
 N                 -3.33063700   -2.21619200    0.38480200
 N                 -3.52278900   -1.86278500   -0.86374000
 C                 -2.34274300   -3.02028000    0.80200500
 H                 -2.28252500   -3.25238300    1.86655800
 H                 -5.18969400    0.09407400    2.09979300
 C                 -5.50448100    0.45128900    0.06515500
 C                 -5.79383900    1.81940300    0.20720300
 C                 -6.07253400   -0.24566500   -1.00611500
 C                 -6.60056200    2.48254400   -0.71385300
 H                 -5.36182000    2.36951300    1.04721300
 C                 -6.89365000    0.41845600   -1.92385400
 H                 -5.87839400   -1.30494100   -1.16348800
 C                 -7.15353900    1.78122300   -1.78928400
 H                 -6.80308600    3.54834300   -0.58802300
 H                 -7.32528000   -0.14320700   -2.75510100
 H                 -7.78855300    2.29477700   -2.51447900
 Lu                 1.36599200    0.24989200    0.13226800
 O                 -3.44509500    0.69807300    1.35229100
 O                 -2.69892502    1.29824475   -1.28580120
 O                 -1.53518047    0.22696611    3.33234589
 C                 -2.42422858    0.89187640   -2.62904601
 H                 -3.33493445    0.87724305   -3.19056243
 H                 -1.73981840    1.58141967   -3.07739050
 H                 -1.99239086   -0.08709928   -2.62426995
 C                 -0.58655152   -0.48403670    4.13201964
 H                  0.32847762    0.06885834    4.17593715
 H                 -0.97583313   -0.60857799    5.12088227
 H                 -0.40248607   -1.44439937    3.69759651

H     0
S    3   1.00
     13.0107010              0.19682158D-01
      1.9622572              0.13796524
      0.44453796             0.47831935
S    1   1.00
      0.12194962             1.0000000
P    1   1.00
      0.8000000              1.0000000
****
C     0
S    5   1.00
   1238.4016938              0.54568832082D-02
    186.29004992             0.40638409211D-01
     42.251176346            0.18025593888
     11.676557932            0.46315121755
      3.5930506482           0.44087173314
S    1   1.00
      0.40245147363          1.0000000
S    1   1.00
      0.13090182668          1.0000000
P    3   1.00
      9.4680970621           0.38387871728D-01
      2.0103545142           0.21117025112
      0.54771004707          0.51328172114
P    1   1.00
      0.15268613795          1.0000000
D    1   1.00
      0.8000000              1.0000000
****
N     0
S    5   1.00
   1712.8415853             -0.53934125305D-02
    257.64812677            -0.40221581118D-01
     58.458245853           -0.17931144990
     16.198367905           -0.46376317823
      5.0052600809          -0.44171422662
S    1   1.00
      0.58731856571          1.0000000
S    1   1.00
      0.18764592253          1.0000000
P    3   1.00
     13.571470233           -0.40072398852D-01
      2.9257372874          -0.21807045028
      0.79927750754         -0.51294466049
P    1   1.00
      0.21954348034          1.0000000
D    1   1.00
      1.0000000              1.0000000
****
O     0
S    5   1.00
   2266.1767785             -0.53431809926D-02
    340.87010191            -0.39890039230D-01
     77.363135167           -0.17853911985
     21.479644940           -0.46427684959
      6.6589433124          -0.44309745172
S    1   1.00
      0.80975975668          1.0000000
S    1   1.00
      0.25530772234          1.0000000
P    3   1.00
     17.721504317            0.43394573193D-01
      3.8635505440           0.23094120765
      1.0480920883           0.51375311064
P    1   1.00
      0.27641544411          1.0000000
D    1   1.00
      1.2000000              1.0000000
****
F     0
S    5   1.00
   2894.8325990             -0.53408255515D-02
    435.41939120            -0.39904258866D-01
     98.843328866           -0.17912768038
     27.485198001           -0.46758090825
      8.5405498171          -0.44653131020
S    1   1.00
      1.0654578038           1.0000000
S    1   1.00
      0.33247346748          1.0000000
P    3   1.00
     22.696633924           -0.45212874436D-01
      4.9872339257          -0.23754317067
      1.3491613954          -0.51287353587
P    1   1.00
      0.34829881977          1.0000000
D    1   1.00
      1.4000000              1.0000000
****
S     0
S    5   1.00
   9184.9303010             -0.22294387756D-02
   1381.5105503             -0.16683029937D-01
    313.87147580            -0.75262436116D-01
     88.053870623           -0.19376827038
     27.039914905           -0.17718020803
S    3   1.00
     45.648731303           -0.10736062573
      4.9664522326           0.65066293018
      2.0116242047           0.59712155354
S    1   1.00
      0.35661077013          1.0000000
S    1   1.00
      0.13507221477          1.0000000
P    5   1.00
    261.98233439            -0.92729929822D-02
     61.306894736           -0.66547669241D-01
     19.103729887           -0.24828595903
      6.6567720378          -0.48703847402
      2.3959635161          -0.39337850312
P    1   1.00
      0.61776161679          1.0000000
P    1   1.00
      0.16993376871          1.0000000
D    1   1.00
      0.5500000              1.0000000
****
Lu     0
S    5   1.00
  95169.767000               0.22000000000D-04
  15488.403000               0.14500000000D-03
   3776.2335000              0.65100000000D-03
   1079.0501000              0.20380000000D-02
    268.95380000             0.51270000000D-02
S    1   1.00
     63.467900000            1.0000000
S    1   1.00
     45.133200000            1.0000000
S    1   1.00
     21.456800000            1.0000000
S    1   1.00
      5.3483000000           1.0000000
S    1   1.00
      2.6778000000           1.0000000
S    1   1.00
      1.0287000000           1.0000000
S    1   1.00
      0.44080000000          1.0000000
S    1   1.00
      0.79100000000D-01      1.0000000
S    1   1.00
      0.31300000000D-01      1.0000000
P    3   1.00
     12.333733920           -0.15313031066
     11.080331415           -0.20300664852
      2.0341747228          -0.19458361263
P    6   1.00
   1500.5317313             -0.10192569555D-02
    382.39748937            -0.59476212135D-02
    132.99969628            -0.16265160929D-01
     46.110032419           -0.35623845839D-01
     15.583529011            0.23709171074
      5.7856677022          -0.30670977844
P    1   1.00
      3.7823361008           1.0000000
P    1   1.00
      1.3682592248           1.0000000
P    1   1.00
      0.57288205601          1.0000000
P    1   1.00
      0.22793165135          1.0000000
P    1   1.00
      0.81403917986D-01      1.0000000
P    1   1.00
      0.29091071778D-01      1.0000000
D    6   1.00
    484.52750000             0.22860000000D-02
    146.66550000             0.18629000000D-01
     56.377900000            0.74088000000D-01
     23.671100000            0.16155400000
      9.4401000000           0.30809100000
      4.3712000000           0.44833400000
D    1   1.00
      1.9580000000           1.0000000
D    1   1.00
      0.72720000000          1.0000000
D    1   1.00
      0.24600000000          1.0000000
D    1   1.00
      0.74400000000D-01      1.0000000
F    5   1.00
    175.15590000             0.41020000000D-02
     62.890900000            0.39086000000D-01
     28.362400000            0.14704400000
     13.247800000            0.27109200000
      6.1440000000           0.34566500000
F    1   1.00
      2.7623000000           1.0000000
F    1   1.00
      1.1574000000           1.0000000
F    1   1.00
      0.42440000000          1.0000000
G    1   1.00
      0.70090000000          1.0000000
****

Lu     0
Lu-ECP     5     28
h potential
  1
2      1.00000000             0.00000000
s-h potential
  1
2     35.16209700           989.99558400
p-h potential
  1
2     19.46440200           278.86565200
d-h potential
  1
2     10.00686500            71.00917800
f-h potential
  1
2     23.51793200           -47.40589000
g-h potential
  1
2     29.41223800           -35.55714600


