%chk=irc-min.chk
%mem=92Gb
%nprocshared=24
#P UMN15/genecp scf=(maxcyc=500) irc=(maxpoints=100,recorrect=never,calcfc,maxcycles=500,nogradstop) scrf=(smd,solvent=DiChloroEthane)  

Opt

0 1
C                 -2.19254100   -0.15379100    0.90291600
 C                 -1.76318300    0.30443400   -0.41655700
 C                 -1.17517300   -0.24907000    1.95215900
 O                  0.01640600   -0.52441000    1.69216500
 O                 -0.61625000    0.02946900   -0.84128000
 O                  3.14040700   -1.09982300    1.06729600
 O                  2.38207400   -0.39680400   -1.94640300
 O                  0.27028200    2.13822000    0.75750000
 S                  1.15552400    3.04689800   -0.02678100
 S                  3.65408000   -0.03670700    1.99100800
 S                  2.12886400   -1.87411400   -1.94876600
 O                  2.07760100    2.14864800   -0.79262100
 O                  1.72802500    4.18441800    0.64402800
 O                  2.68296700    1.08769500    1.85408300
 O                  4.06460700   -0.43296000    3.31063400
 O                  1.35719500   -2.14063100   -0.70320100
 O                  1.63674000   -2.46188200   -3.16990700
 C                  3.80812700   -2.63646900   -1.65642900
 C                  5.15169200    0.56468000    1.10965300
 C                  0.04876800    3.73694700   -1.33618000
 F                  3.70668300   -3.55386500   -0.71612500
 F                  4.67478600   -1.71375700   -1.28937300
 F                  4.21527200   -3.19629900   -2.77931400
 F                  4.79049100    0.95634400   -0.10203400
 F                  6.02914100   -0.41521000    1.01610300
 F                  5.67997700    1.57810200    1.76622400
 F                 -0.13794600    2.82957400   -2.27997100
 F                  0.60442900    4.81030000   -1.86149400
 F                 -1.11577400    4.05705900   -0.79941300
 C                 -4.74395500   -0.15650800    1.20477500
 C                 -4.81137000   -1.71955500    1.14130600
 C                 -6.13269700   -2.21851300    0.71471000
 C                 -4.60363900   -2.22586300    2.51913000
 C                 -1.44861000   -2.75142800   -0.10055400
 C                 -3.09955500   -2.69270200   -1.84422500
 C                 -1.75378400   -2.94758400   -1.41030200
 H                 -0.46232100   -2.95251200    0.31251700
 H                 -3.38751800   -2.80058200   -2.89200000
 H                 -1.00903600   -3.30659900   -2.12282700
 N                 -7.18250700   -2.62020400    0.44444800
 N                 -4.45037900   -2.58468100    3.60799100
 N                 -3.74899800   -2.25928700    0.27584900
 N                 -4.05659000   -2.37446700   -1.02026500
 C                 -2.46366600   -2.20323100    0.75395100
 H                 -2.37453000   -2.35511900    1.83199600
 H                 -5.23740000    0.09238500    2.15660700
 C                 -5.47791600    0.65401300    0.14843100
 C                 -5.61623100    2.01391000    0.47014200
 C                 -5.97270400    0.19149200   -1.07555600
 C                 -6.21051900    2.90120500   -0.42383400
 H                 -5.23620900    2.37734600    1.42899700
 C                 -6.58031600    1.08155600   -1.96732500
 H                 -5.87020100   -0.85335800   -1.36822000
 C                 -6.69398900    2.43470600   -1.65035700
 H                 -6.30365300    3.95713300   -0.16119100
 H                 -6.95901500    0.70736800   -2.92077900
 H                 -7.16336700    3.12569500   -2.35398500
 Lu                 1.41622900    0.11885800    0.09052800
 O                 -3.40641600    0.30190000    1.41020500
 C                 -1.60812100   -0.06990900    3.36458200
 H                 -2.05376000    0.92975700    3.48056600
 H                 -2.39742400   -0.79447400    3.62209500
 H                 -0.74731500   -0.19234700    4.03112700
 C                 -2.69096200    1.08588500   -1.27705000
 H                 -3.51669100    0.44312800   -1.61432900
 H                 -3.14310100    1.90874400   -0.70352200
 H                 -2.14748400    1.46155700   -2.14983400

H     0
S    3   1.00
     13.0107010              0.19682158D-01
      1.9622572              0.13796524
      0.44453796             0.47831935
S    1   1.00
      0.12194962             1.0000000
P    1   1.00
      0.8000000              1.0000000
****
C     0
S    5   1.00
   1238.4016938              0.54568832082D-02
    186.29004992             0.40638409211D-01
     42.251176346            0.18025593888
     11.676557932            0.46315121755
      3.5930506482           0.44087173314
S    1   1.00
      0.40245147363          1.0000000
S    1   1.00
      0.13090182668          1.0000000
P    3   1.00
      9.4680970621           0.38387871728D-01
      2.0103545142           0.21117025112
      0.54771004707          0.51328172114
P    1   1.00
      0.15268613795          1.0000000
D    1   1.00
      0.8000000              1.0000000
****
N     0
S    5   1.00
   1712.8415853             -0.53934125305D-02
    257.64812677            -0.40221581118D-01
     58.458245853           -0.17931144990
     16.198367905           -0.46376317823
      5.0052600809          -0.44171422662
S    1   1.00
      0.58731856571          1.0000000
S    1   1.00
      0.18764592253          1.0000000
P    3   1.00
     13.571470233           -0.40072398852D-01
      2.9257372874          -0.21807045028
      0.79927750754         -0.51294466049
P    1   1.00
      0.21954348034          1.0000000
D    1   1.00
      1.0000000              1.0000000
****
O     0
S    5   1.00
   2266.1767785             -0.53431809926D-02
    340.87010191            -0.39890039230D-01
     77.363135167           -0.17853911985
     21.479644940           -0.46427684959
      6.6589433124          -0.44309745172
S    1   1.00
      0.80975975668          1.0000000
S    1   1.00
      0.25530772234          1.0000000
P    3   1.00
     17.721504317            0.43394573193D-01
      3.8635505440           0.23094120765
      1.0480920883           0.51375311064
P    1   1.00
      0.27641544411          1.0000000
D    1   1.00
      1.2000000              1.0000000
****
F     0
S    5   1.00
   2894.8325990             -0.53408255515D-02
    435.41939120            -0.39904258866D-01
     98.843328866           -0.17912768038
     27.485198001           -0.46758090825
      8.5405498171          -0.44653131020
S    1   1.00
      1.0654578038           1.0000000
S    1   1.00
      0.33247346748          1.0000000
P    3   1.00
     22.696633924           -0.45212874436D-01
      4.9872339257          -0.23754317067
      1.3491613954          -0.51287353587
P    1   1.00
      0.34829881977          1.0000000
D    1   1.00
      1.4000000              1.0000000
****
S     0
S    5   1.00
   9184.9303010             -0.22294387756D-02
   1381.5105503             -0.16683029937D-01
    313.87147580            -0.75262436116D-01
     88.053870623           -0.19376827038
     27.039914905           -0.17718020803
S    3   1.00
     45.648731303           -0.10736062573
      4.9664522326           0.65066293018
      2.0116242047           0.59712155354
S    1   1.00
      0.35661077013          1.0000000
S    1   1.00
      0.13507221477          1.0000000
P    5   1.00
    261.98233439            -0.92729929822D-02
     61.306894736           -0.66547669241D-01
     19.103729887           -0.24828595903
      6.6567720378          -0.48703847402
      2.3959635161          -0.39337850312
P    1   1.00
      0.61776161679          1.0000000
P    1   1.00
      0.16993376871          1.0000000
D    1   1.00
      0.5500000              1.0000000
****
Lu     0
S    5   1.00
  95169.767000               0.22000000000D-04
  15488.403000               0.14500000000D-03
   3776.2335000              0.65100000000D-03
   1079.0501000              0.20380000000D-02
    268.95380000             0.51270000000D-02
S    1   1.00
     63.467900000            1.0000000
S    1   1.00
     45.133200000            1.0000000
S    1   1.00
     21.456800000            1.0000000
S    1   1.00
      5.3483000000           1.0000000
S    1   1.00
      2.6778000000           1.0000000
S    1   1.00
      1.0287000000           1.0000000
S    1   1.00
      0.44080000000          1.0000000
S    1   1.00
      0.79100000000D-01      1.0000000
S    1   1.00
      0.31300000000D-01      1.0000000
P    3   1.00
     12.333733920           -0.15313031066
     11.080331415           -0.20300664852
      2.0341747228          -0.19458361263
P    6   1.00
   1500.5317313             -0.10192569555D-02
    382.39748937            -0.59476212135D-02
    132.99969628            -0.16265160929D-01
     46.110032419           -0.35623845839D-01
     15.583529011            0.23709171074
      5.7856677022          -0.30670977844
P    1   1.00
      3.7823361008           1.0000000
P    1   1.00
      1.3682592248           1.0000000
P    1   1.00
      0.57288205601          1.0000000
P    1   1.00
      0.22793165135          1.0000000
P    1   1.00
      0.81403917986D-01      1.0000000
P    1   1.00
      0.29091071778D-01      1.0000000
D    6   1.00
    484.52750000             0.22860000000D-02
    146.66550000             0.18629000000D-01
     56.377900000            0.74088000000D-01
     23.671100000            0.16155400000
      9.4401000000           0.30809100000
      4.3712000000           0.44833400000
D    1   1.00
      1.9580000000           1.0000000
D    1   1.00
      0.72720000000          1.0000000
D    1   1.00
      0.24600000000          1.0000000
D    1   1.00
      0.74400000000D-01      1.0000000
F    5   1.00
    175.15590000             0.41020000000D-02
     62.890900000            0.39086000000D-01
     28.362400000            0.14704400000
     13.247800000            0.27109200000
      6.1440000000           0.34566500000
F    1   1.00
      2.7623000000           1.0000000
F    1   1.00
      1.1574000000           1.0000000
F    1   1.00
      0.42440000000          1.0000000
G    1   1.00
      0.70090000000          1.0000000
****

Lu     0
Lu-ECP     5     28
h potential
  1
2      1.00000000             0.00000000
s-h potential
  1
2     35.16209700           989.99558400
p-h potential
  1
2     19.46440200           278.86565200
d-h potential
  1
2     10.00686500            71.00917800
f-h potential
  1
2     23.51793200           -47.40589000
g-h potential
  1
2     29.41223800           -35.55714600










