%chk=TS2.chk
%mem=92Gb
%nprocshared=24
#P UMN15/genecp scf=(maxcyc=500) opt=(TS,tight,noeigentest,calcFC) freq scrf=(smd,solvent=DiChloroEthane)  

Opt

0 1
 C                 -5.63317900    0.58262900   -0.22596900
 C                 -6.52130500    0.28653500   -1.27707600
 C                 -7.82195000    0.78135600   -1.23808400
 C                 -8.23626500    1.56085200   -0.15383200
 C                 -7.35412300    1.85746400    0.89335500
 C                 -6.05072100    1.37548700    0.86172900
 C                 -2.02452800    0.39462700    0.28325500
 C                 -1.43693100    0.84493200   -0.92517500
 C                 -1.29323300   -0.07831300    1.39536600
 H                 -6.17929700   -0.32047600   -2.11819800
 H                 -8.51405000    0.56170200   -2.05295400
 H                 -9.25783700    1.94653100   -0.12461400
 H                 -7.68843700    2.46982400    1.73289400
 H                 -5.34889900    1.59916600    1.66754200
 O                 -0.05353800   -0.29150900    1.41479200
 O                 -0.20429200    0.85923900   -1.16444700
 O                 -2.29225600    1.27122500   -1.84013000
 O                 -2.02813500   -0.33885300    2.46547200
 C                 -1.76968600    1.67337200   -3.10678100
 C                 -1.36750400   -0.75592600    3.65813000
 H                 -2.63309700    1.96371200   -3.71427600
 H                 -1.23522300    0.83915500   -3.58185500
 H                 -1.08614600    2.52343600   -2.99344700
 H                 -2.16150800   -0.96322400    4.38478500
 H                 -0.71374400    0.04346700    4.03391300
 H                 -0.76490000   -1.65860600    3.48203400
 O                  2.92820300   -1.33016000    0.96176000
 O                  2.59095200   -0.16419500   -1.91142500
 O                  0.70617100    2.39122700    1.09466000
 S                  1.56698800    3.30320100    0.29244300
 S                  3.67340300   -0.48627400    1.94712100
 S                  1.92117500   -1.48075700   -2.15309400
 O                  2.37732200    2.41761700   -0.60475800
 O                  2.26632700    4.35880500    0.97866500
 O                  3.00050900    0.84671100    1.90667200
 O                  3.97805700   -1.05835400    3.23105900
 O                  0.99419400   -1.68508900   -1.00597700
 O                  1.40041700   -1.72655800   -3.47566900
 C                  3.27367500   -2.74367900   -1.90305200
 C                  5.26978200   -0.17224300    1.09140400
 C                  0.38458500    4.16459300   -0.87213900
 F                  2.84334900   -3.68483600   -1.08178300
 F                  4.35013600   -2.17410100   -1.40009600
 F                  3.56993800   -3.28395300   -3.06985100
 F                  5.00443600    0.38574200   -0.08061300
 F                  5.90887200   -1.31063600    0.90742900
 F                  6.01086100    0.64449200    1.81347100
 F                 -0.84524300    3.71353900   -0.68656500
 F                  0.74600700    3.93953600   -2.12228400
 F                  0.41080300    5.46015000   -0.63310000
 C                 -4.28257500    0.06519900   -0.28510300
 H                 -3.93149200   -0.47134800   -1.17505700
 C                 -4.55501500   -2.00884600    0.65685000
 C                 -5.57899800   -2.54595200   -0.17652100
 C                 -4.89533200   -1.59359300    1.97399400
 C                 -1.26695200   -3.61638000    1.27464200
 C                 -1.67584900   -3.18961100   -1.03815800
 C                 -0.81748000   -3.67195500   -0.02975700
 H                 -0.67566600   -3.98252500    2.11461500
 H                 -1.38386300   -3.20442900   -2.09023400
 H                  0.16565700   -4.06240400   -0.28844000
 N                 -6.42155200   -2.92508900   -0.88310200
 N                 -5.16971400   -1.17837800    3.02584400
 N                 -3.25984000   -2.62329800    0.47966700
 N                 -2.86055600   -2.67547900   -0.78403000
 C                 -2.53669000   -3.08795900    1.50928600
 H                 -2.99093800   -3.03885700    2.50046500
 Lu                 1.56013300    0.37860500    0.09347900
 O                 -3.39195500    0.62064500    0.48882500

H     0
S    3   1.00
     13.0107010              0.19682158D-01
      1.9622572              0.13796524
      0.44453796             0.47831935
S    1   1.00
      0.12194962             1.0000000
P    1   1.00
      0.8000000              1.0000000
****
C     0
S    5   1.00
   1238.4016938              0.54568832082D-02
    186.29004992             0.40638409211D-01
     42.251176346            0.18025593888
     11.676557932            0.46315121755
      3.5930506482           0.44087173314
S    1   1.00
      0.40245147363          1.0000000
S    1   1.00
      0.13090182668          1.0000000
P    3   1.00
      9.4680970621           0.38387871728D-01
      2.0103545142           0.21117025112
      0.54771004707          0.51328172114
P    1   1.00
      0.15268613795          1.0000000
D    1   1.00
      0.8000000              1.0000000
****
N     0
S    5   1.00
   1712.8415853             -0.53934125305D-02
    257.64812677            -0.40221581118D-01
     58.458245853           -0.17931144990
     16.198367905           -0.46376317823
      5.0052600809          -0.44171422662
S    1   1.00
      0.58731856571          1.0000000
S    1   1.00
      0.18764592253          1.0000000
P    3   1.00
     13.571470233           -0.40072398852D-01
      2.9257372874          -0.21807045028
      0.79927750754         -0.51294466049
P    1   1.00
      0.21954348034          1.0000000
D    1   1.00
      1.0000000              1.0000000
****
O     0
S    5   1.00
   2266.1767785             -0.53431809926D-02
    340.87010191            -0.39890039230D-01
     77.363135167           -0.17853911985
     21.479644940           -0.46427684959
      6.6589433124          -0.44309745172
S    1   1.00
      0.80975975668          1.0000000
S    1   1.00
      0.25530772234          1.0000000
P    3   1.00
     17.721504317            0.43394573193D-01
      3.8635505440           0.23094120765
      1.0480920883           0.51375311064
P    1   1.00
      0.27641544411          1.0000000
D    1   1.00
      1.2000000              1.0000000
****
F     0
S    5   1.00
   2894.8325990             -0.53408255515D-02
    435.41939120            -0.39904258866D-01
     98.843328866           -0.17912768038
     27.485198001           -0.46758090825
      8.5405498171          -0.44653131020
S    1   1.00
      1.0654578038           1.0000000
S    1   1.00
      0.33247346748          1.0000000
P    3   1.00
     22.696633924           -0.45212874436D-01
      4.9872339257          -0.23754317067
      1.3491613954          -0.51287353587
P    1   1.00
      0.34829881977          1.0000000
D    1   1.00
      1.4000000              1.0000000
****
S     0
S    5   1.00
   9184.9303010             -0.22294387756D-02
   1381.5105503             -0.16683029937D-01
    313.87147580            -0.75262436116D-01
     88.053870623           -0.19376827038
     27.039914905           -0.17718020803
S    3   1.00
     45.648731303           -0.10736062573
      4.9664522326           0.65066293018
      2.0116242047           0.59712155354
S    1   1.00
      0.35661077013          1.0000000
S    1   1.00
      0.13507221477          1.0000000
P    5   1.00
    261.98233439            -0.92729929822D-02
     61.306894736           -0.66547669241D-01
     19.103729887           -0.24828595903
      6.6567720378          -0.48703847402
      2.3959635161          -0.39337850312
P    1   1.00
      0.61776161679          1.0000000
P    1   1.00
      0.16993376871          1.0000000
D    1   1.00
      0.5500000              1.0000000
****
Lu     0
S    5   1.00
  95169.767000               0.22000000000D-04
  15488.403000               0.14500000000D-03
   3776.2335000              0.65100000000D-03
   1079.0501000              0.20380000000D-02
    268.95380000             0.51270000000D-02
S    1   1.00
     63.467900000            1.0000000
S    1   1.00
     45.133200000            1.0000000
S    1   1.00
     21.456800000            1.0000000
S    1   1.00
      5.3483000000           1.0000000
S    1   1.00
      2.6778000000           1.0000000
S    1   1.00
      1.0287000000           1.0000000
S    1   1.00
      0.44080000000          1.0000000
S    1   1.00
      0.79100000000D-01      1.0000000
S    1   1.00
      0.31300000000D-01      1.0000000
P    3   1.00
     12.333733920           -0.15313031066
     11.080331415           -0.20300664852
      2.0341747228          -0.19458361263
P    6   1.00
   1500.5317313             -0.10192569555D-02
    382.39748937            -0.59476212135D-02
    132.99969628            -0.16265160929D-01
     46.110032419           -0.35623845839D-01
     15.583529011            0.23709171074
      5.7856677022          -0.30670977844
P    1   1.00
      3.7823361008           1.0000000
P    1   1.00
      1.3682592248           1.0000000
P    1   1.00
      0.57288205601          1.0000000
P    1   1.00
      0.22793165135          1.0000000
P    1   1.00
      0.81403917986D-01      1.0000000
P    1   1.00
      0.29091071778D-01      1.0000000
D    6   1.00
    484.52750000             0.22860000000D-02
    146.66550000             0.18629000000D-01
     56.377900000            0.74088000000D-01
     23.671100000            0.16155400000
      9.4401000000           0.30809100000
      4.3712000000           0.44833400000
D    1   1.00
      1.9580000000           1.0000000
D    1   1.00
      0.72720000000          1.0000000
D    1   1.00
      0.24600000000          1.0000000
D    1   1.00
      0.74400000000D-01      1.0000000
F    5   1.00
    175.15590000             0.41020000000D-02
     62.890900000            0.39086000000D-01
     28.362400000            0.14704400000
     13.247800000            0.27109200000
      6.1440000000           0.34566500000
F    1   1.00
      2.7623000000           1.0000000
F    1   1.00
      1.1574000000           1.0000000
F    1   1.00
      0.42440000000          1.0000000
G    1   1.00
      0.70090000000          1.0000000
****

Lu     0
Lu-ECP     5     28
h potential
  1
2      1.00000000             0.00000000
s-h potential
  1
2     35.16209700           989.99558400
p-h potential
  1
2     19.46440200           278.86565200
d-h potential
  1
2     10.00686500            71.00917800
f-h potential
  1
2     23.51793200           -47.40589000
g-h potential
  1
2     29.41223800           -35.55714600


