%chk=i2.chk
%mem=616Gb
%nprocshared=24
#P  MN15/genecp scf=(maxcyc=500) opt freq scrf=(smd,solvent=DiChloroEthane)  

Opt

0 1
 C                 -2.28449700    0.12047100    0.93752100
 C                 -1.89602500    0.41555700   -0.39827500
 C                 -1.34683300   -0.27151500    1.93103000
 O                 -0.13518500   -0.55797600    1.66660600
 O                 -0.73786500    0.13241900   -0.84699900
 O                  2.99297400   -1.11723500    1.05831800
 O                  2.21326200   -0.42074400   -1.92817800
 O                  0.18189200    2.19822700    0.81538100
 S                  1.05114300    3.06602900   -0.02348000
 S                  3.51599700   -0.06209600    1.98188300
 S                  1.95025900   -1.89281700   -1.93181500
 O                  1.94386100    2.14422700   -0.79277600
 O                  1.65292500    4.22154700    0.59246800
 O                  2.55850700    1.07352900    1.86853000
 O                  3.93933400   -0.47129800    3.29543700
 O                  1.15722300   -2.17210000   -0.70373500
 O                  1.47431000   -2.47783400   -3.16386700
 C                  3.63161800   -2.65459700   -1.63801100
 C                  5.01460300    0.54165100    1.10547600
 C                 -0.08441100    3.73610000   -1.32274800
 F                  3.53786800   -3.57001900   -0.69380300
 F                  4.50375900   -1.73269200   -1.28139300
 F                  4.03682200   -3.22060300   -2.76036300
 F                  4.66430800    0.94283900   -0.10569400
 F                  5.89557600   -0.43667100    1.01035200
 F                  5.54228700    1.55165900    1.77106400
 F                 -0.25144900    2.84064200   -2.28127000
 F                  0.43626500    4.83321300   -1.83917200
 F                 -1.25718500    4.01785200   -0.77983500
 C                 -4.80359200   -0.11804800    1.16417900
 C                 -4.80619000   -1.70680700    1.15179900
 C                 -6.12998200   -2.21535600    0.74143900
 C                 -4.60351300   -2.15189700    2.54453400
 C                 -1.60713000   -3.20609600   -0.11215200
 C                 -3.11300700   -2.60023200   -1.87273800
 C                 -1.84638100   -3.07031400   -1.46876200
 H                 -0.66624700   -3.58580100    0.28056100
 H                 -3.38254200   -2.50468700   -2.92439300
 H                 -1.08448000   -3.31584800   -2.21313000
 N                 -7.17847800   -2.61816500    0.46730200
 N                 -4.50261200   -2.48518500    3.64698000
 N                 -3.75959900   -2.32238800    0.27418900
 N                 -4.03814900   -2.23022600   -1.00885600
 C                 -2.61339700   -2.80874800    0.76769500
 H                 -2.50291500   -2.87170800    1.85277800
 H                 -5.36974500    0.07079100    2.09221500
 C                 -5.58520200    0.64697600    0.09944400
 C                 -5.75981200    2.00179100    0.43088100
 C                 -6.09657200    0.17694600   -1.11348100
 C                 -6.39610200    2.87671200   -0.44488800
 H                 -5.37063900    2.37271300    1.38283300
 C                 -6.74410400    1.05577800   -1.98886100
 H                 -5.97830000   -0.86337500   -1.41235300
 C                 -6.88761800    2.40406600   -1.66575300
 H                 -6.51549000    3.92739700   -0.17240000
 H                 -7.13178600    0.67456400   -2.93602600
 H                 -7.38899300    3.08423800   -2.35762600
 Lu                 1.22935000    0.12223400    0.11492600
 O                 -3.54687600    0.46367500    1.41977500
 C                 -1.75456300   -0.35262300    3.37271300
 H                 -2.68644000    0.17984500    3.59460200
 H                 -1.88171700   -1.40839100    3.65888800
 H                 -0.93251800    0.03700700    3.97634200
 C                 -2.83778800    1.10534000   -1.33462900
 H                 -3.60410500    0.41332500   -1.70604500
 H                 -3.36154800    1.92177200   -0.82254000
 H                 -2.26748600    1.48916900   -2.18752700

H     0
S    3   1.00
     13.0107010              0.19682158D-01
      1.9622572              0.13796524
      0.44453796             0.47831935
S    1   1.00
      0.12194962             1.0000000
P    1   1.00
      0.8000000              1.0000000
****
C     0
S    5   1.00
   1238.4016938              0.54568832082D-02
    186.29004992             0.40638409211D-01
     42.251176346            0.18025593888
     11.676557932            0.46315121755
      3.5930506482           0.44087173314
S    1   1.00
      0.40245147363          1.0000000
S    1   1.00
      0.13090182668          1.0000000
P    3   1.00
      9.4680970621           0.38387871728D-01
      2.0103545142           0.21117025112
      0.54771004707          0.51328172114
P    1   1.00
      0.15268613795          1.0000000
D    1   1.00
      0.8000000              1.0000000
****
N     0
S    5   1.00
   1712.8415853             -0.53934125305D-02
    257.64812677            -0.40221581118D-01
     58.458245853           -0.17931144990
     16.198367905           -0.46376317823
      5.0052600809          -0.44171422662
S    1   1.00
      0.58731856571          1.0000000
S    1   1.00
      0.18764592253          1.0000000
P    3   1.00
     13.571470233           -0.40072398852D-01
      2.9257372874          -0.21807045028
      0.79927750754         -0.51294466049
P    1   1.00
      0.21954348034          1.0000000
D    1   1.00
      1.0000000              1.0000000
****
O     0
S    5   1.00
   2266.1767785             -0.53431809926D-02
    340.87010191            -0.39890039230D-01
     77.363135167           -0.17853911985
     21.479644940           -0.46427684959
      6.6589433124          -0.44309745172
S    1   1.00
      0.80975975668          1.0000000
S    1   1.00
      0.25530772234          1.0000000
P    3   1.00
     17.721504317            0.43394573193D-01
      3.8635505440           0.23094120765
      1.0480920883           0.51375311064
P    1   1.00
      0.27641544411          1.0000000
D    1   1.00
      1.2000000              1.0000000
****
F     0
S    5   1.00
   2894.8325990             -0.53408255515D-02
    435.41939120            -0.39904258866D-01
     98.843328866           -0.17912768038
     27.485198001           -0.46758090825
      8.5405498171          -0.44653131020
S    1   1.00
      1.0654578038           1.0000000
S    1   1.00
      0.33247346748          1.0000000
P    3   1.00
     22.696633924           -0.45212874436D-01
      4.9872339257          -0.23754317067
      1.3491613954          -0.51287353587
P    1   1.00
      0.34829881977          1.0000000
D    1   1.00
      1.4000000              1.0000000
****
S     0
S    5   1.00
   9184.9303010             -0.22294387756D-02
   1381.5105503             -0.16683029937D-01
    313.87147580            -0.75262436116D-01
     88.053870623           -0.19376827038
     27.039914905           -0.17718020803
S    3   1.00
     45.648731303           -0.10736062573
      4.9664522326           0.65066293018
      2.0116242047           0.59712155354
S    1   1.00
      0.35661077013          1.0000000
S    1   1.00
      0.13507221477          1.0000000
P    5   1.00
    261.98233439            -0.92729929822D-02
     61.306894736           -0.66547669241D-01
     19.103729887           -0.24828595903
      6.6567720378          -0.48703847402
      2.3959635161          -0.39337850312
P    1   1.00
      0.61776161679          1.0000000
P    1   1.00
      0.16993376871          1.0000000
D    1   1.00
      0.5500000              1.0000000
****
Lu     0
S    5   1.00
  95169.767000               0.22000000000D-04
  15488.403000               0.14500000000D-03
   3776.2335000              0.65100000000D-03
   1079.0501000              0.20380000000D-02
    268.95380000             0.51270000000D-02
S    1   1.00
     63.467900000            1.0000000
S    1   1.00
     45.133200000            1.0000000
S    1   1.00
     21.456800000            1.0000000
S    1   1.00
      5.3483000000           1.0000000
S    1   1.00
      2.6778000000           1.0000000
S    1   1.00
      1.0287000000           1.0000000
S    1   1.00
      0.44080000000          1.0000000
S    1   1.00
      0.79100000000D-01      1.0000000
S    1   1.00
      0.31300000000D-01      1.0000000
P    3   1.00
     12.333733920           -0.15313031066
     11.080331415           -0.20300664852
      2.0341747228          -0.19458361263
P    6   1.00
   1500.5317313             -0.10192569555D-02
    382.39748937            -0.59476212135D-02
    132.99969628            -0.16265160929D-01
     46.110032419           -0.35623845839D-01
     15.583529011            0.23709171074
      5.7856677022          -0.30670977844
P    1   1.00
      3.7823361008           1.0000000
P    1   1.00
      1.3682592248           1.0000000
P    1   1.00
      0.57288205601          1.0000000
P    1   1.00
      0.22793165135          1.0000000
P    1   1.00
      0.81403917986D-01      1.0000000
P    1   1.00
      0.29091071778D-01      1.0000000
D    6   1.00
    484.52750000             0.22860000000D-02
    146.66550000             0.18629000000D-01
     56.377900000            0.74088000000D-01
     23.671100000            0.16155400000
      9.4401000000           0.30809100000
      4.3712000000           0.44833400000
D    1   1.00
      1.9580000000           1.0000000
D    1   1.00
      0.72720000000          1.0000000
D    1   1.00
      0.24600000000          1.0000000
D    1   1.00
      0.74400000000D-01      1.0000000
F    5   1.00
    175.15590000             0.41020000000D-02
     62.890900000            0.39086000000D-01
     28.362400000            0.14704400000
     13.247800000            0.27109200000
      6.1440000000           0.34566500000
F    1   1.00
      2.7623000000           1.0000000
F    1   1.00
      1.1574000000           1.0000000
F    1   1.00
      0.42440000000          1.0000000
G    1   1.00
      0.70090000000          1.0000000
****

Lu     0
Lu-ECP     5     28
h potential
  1
2      1.00000000             0.00000000
s-h potential
  1
2     35.16209700           989.99558400
p-h potential
  1
2     19.46440200           278.86565200
d-h potential
  1
2     10.00686500            71.00917800
f-h potential
  1
2     23.51793200           -47.40589000
g-h potential
  1
2     29.41223800           -35.55714600











