%chk=i2.chk
%mem=616Gb
%nprocshared=24
#P  MN15/gen scf=(maxcyc=500) freq scrf=(smd,solvent=DiChloroEthane)  

Opt

0 1
C                 -1.7217430000      0.1335110000      1.1884090000
C                 -1.3894010000      0.2542730000     -0.1822510000
C                 -0.6731370000     -0.2112770000      2.0781410000
O                  0.5302000000     -0.4425920000      1.7536970000
O                 -0.2343750000      0.2593460000     -0.6925850000
O                 -2.4248350000      0.3214270000     -1.0088860000
O                 -1.0009650000     -0.3720240000      3.3546220000
C                 -2.1610250000      0.4317340000     -2.4048560000
C                  0.0402640000     -0.7042960000      4.2711970000
H                 -3.1319860000      0.3626990000     -2.9086010000
H                 -1.4946950000     -0.3759030000     -2.7411580000
H                 -1.6902350000      1.3972590000     -2.6329330000
H                 -0.4254740000     -0.7439190000      5.2616400000
H                  0.8278180000      0.0615900000      4.2538830000
H                  0.4816250000     -1.6792780000      4.0231780000
O                  3.4330060000     -0.9753050000      0.8400590000
O                  2.3863160000     -0.3169270000     -1.8238470000
O                  0.6529850000      2.2195180000      1.0866380000
S                  1.2610930000      3.0845560000      0.0453360000
S                  4.1077920000      0.0879970000      1.6477380000
S                  2.0292360000     -1.7701200000     -1.8181340000
O                  2.0568890000      2.1627450000     -0.8287510000
O                  1.8897530000      4.3172030000      0.4492150000
O                  3.1375890000      1.2205330000      1.6475360000
O                  4.7220020000     -0.2933790000      2.8921260000
O                  1.3851690000     -2.0258040000     -0.5064990000
O                  1.3646970000     -2.2894060000     -2.9939270000
C                  3.6790940000     -2.6462280000     -1.7432790000
C                  5.4534180000      0.6629190000      0.5334310000
C                 -0.1703520000      3.5898090000     -1.0468650000
F                  3.6896840000     -3.4767160000     -0.7193200000
F                  4.6584690000     -1.7724170000     -1.6192020000
F                  3.8464800000     -3.3297990000     -2.8615250000
F                  4.9203860000      1.0166460000     -0.6226880000
F                  6.3168750000     -0.3170630000      0.3450460000
F                  6.0660310000      1.6980870000      1.0758920000
F                 -1.2962490000      3.0660210000     -0.5865840000
F                  0.0311560000      3.1635460000     -2.2805670000
F                 -0.2759570000      4.9041030000     -1.0487350000
C                 -4.4485360000     -0.0362750000      1.1690920000
C                 -4.5550070000     -1.6012610000      1.1066420000
C                 -5.8517390000     -2.0505020000      0.5584130000
C                 -4.5024460000     -2.0870230000      2.5038490000
C                 -1.2391140000     -3.0633070000      0.1561640000
C                 -2.7204020000     -2.8706780000     -1.7148800000
C                 -1.4392740000     -3.1812650000     -1.2030390000
H                 -0.2894600000     -3.2979670000      0.6348500000
H                 -2.9600450000     -2.9845360000     -2.7740720000
H                 -0.6415530000     -3.5049250000     -1.8739450000
N                 -6.8931100000     -2.4009650000      0.1987860000
N                 -4.4806710000     -2.4270160000      3.6090180000
N                 -3.4541390000     -2.2639930000      0.3315880000
N                 -3.6943400000     -2.4203580000     -0.9548920000
C                 -2.2962550000     -2.5708870000      0.9273820000
H                 -2.2354240000     -2.4560580000      2.0110220000
C                 -3.0925350000      0.4759660000      1.7444380000
H                 -3.2083750000      1.5720060000      1.7512350000
H                 -3.0770610000      0.1854800000      2.8038180000
Sc                 1.6491480000      0.2533940000      0.1890850000
H                 -5.1421820000      0.1733430000      2.0013920000
C                 -5.0503710000      0.7705470000      0.0210380000
C                 -5.3449370000      2.1106090000      0.3225500000
C                 -5.3731430000      0.2965750000     -1.2552450000
C                 -5.9211450000      2.9564540000     -0.6238770000
H                 -5.1267970000      2.4975780000      1.3223210000
C                 -5.9627040000      1.1395440000     -2.2027350000
H                 -5.1535620000     -0.7320750000     -1.5402980000
C                 -6.2341380000      2.4726850000     -1.8964950000
H                 -6.1358230000      3.9945710000     -0.3605420000
H                 -6.2039240000      0.7431490000     -3.1918580000
H                 -6.6906710000      3.1290110000     -2.6406290000

H     0
S    3   1.00
     13.0107010              0.19682158D-01
      1.9622572              0.13796524
      0.44453796             0.47831935
S    1   1.00
      0.12194962             1.0000000
P    1   1.00
      0.8000000              1.0000000
****
C     0
S    5   1.00
   1238.4016938              0.54568832082D-02
    186.29004992             0.40638409211D-01
     42.251176346            0.18025593888
     11.676557932            0.46315121755
      3.5930506482           0.44087173314
S    1   1.00
      0.40245147363          1.0000000
S    1   1.00
      0.13090182668          1.0000000
P    3   1.00
      9.4680970621           0.38387871728D-01
      2.0103545142           0.21117025112
      0.54771004707          0.51328172114
P    1   1.00
      0.15268613795          1.0000000
D    1   1.00
      0.8000000              1.0000000
****
N     0
S    5   1.00
   1712.8415853             -0.53934125305D-02
    257.64812677            -0.40221581118D-01
     58.458245853           -0.17931144990
     16.198367905           -0.46376317823
      5.0052600809          -0.44171422662
S    1   1.00
      0.58731856571          1.0000000
S    1   1.00
      0.18764592253          1.0000000
P    3   1.00
     13.571470233           -0.40072398852D-01
      2.9257372874          -0.21807045028
      0.79927750754         -0.51294466049
P    1   1.00
      0.21954348034          1.0000000
D    1   1.00
      1.0000000              1.0000000
****
O     0
S    5   1.00
   2266.1767785             -0.53431809926D-02
    340.87010191            -0.39890039230D-01
     77.363135167           -0.17853911985
     21.479644940           -0.46427684959
      6.6589433124          -0.44309745172
S    1   1.00
      0.80975975668          1.0000000
S    1   1.00
      0.25530772234          1.0000000
P    3   1.00
     17.721504317            0.43394573193D-01
      3.8635505440           0.23094120765
      1.0480920883           0.51375311064
P    1   1.00
      0.27641544411          1.0000000
D    1   1.00
      1.2000000              1.0000000
****
F     0
S    5   1.00
   2894.8325990             -0.53408255515D-02
    435.41939120            -0.39904258866D-01
     98.843328866           -0.17912768038
     27.485198001           -0.46758090825
      8.5405498171          -0.44653131020
S    1   1.00
      1.0654578038           1.0000000
S    1   1.00
      0.33247346748          1.0000000
P    3   1.00
     22.696633924           -0.45212874436D-01
      4.9872339257          -0.23754317067
      1.3491613954          -0.51287353587
P    1   1.00
      0.34829881977          1.0000000
D    1   1.00
      1.4000000              1.0000000
****
S     0
S    5   1.00
   9184.9303010             -0.22294387756D-02
   1381.5105503             -0.16683029937D-01
    313.87147580            -0.75262436116D-01
     88.053870623           -0.19376827038
     27.039914905           -0.17718020803
S    3   1.00
     45.648731303           -0.10736062573
      4.9664522326           0.65066293018
      2.0116242047           0.59712155354
S    1   1.00
      0.35661077013          1.0000000
S    1   1.00
      0.13507221477          1.0000000
P    5   1.00
    261.98233439            -0.92729929822D-02
     61.306894736           -0.66547669241D-01
     19.103729887           -0.24828595903
      6.6567720378          -0.48703847402
      2.3959635161          -0.39337850312
P    1   1.00
      0.61776161679          1.0000000
P    1   1.00
      0.16993376871          1.0000000
D    1   1.00
      0.5500000              1.0000000
****
Sc     0
S    8   1.00
 191612.9187400              0.23076475942D-03
  28723.8503630              0.17890329946D-02
   6537.0116490              0.92990401140D-02
   1850.3097171              0.37739438011D-01
    602.38855156             0.12227148359
    216.17324766             0.28814821470
     83.712517880            0.40517543099
     32.908707189            0.20566019623
S    4   1.00
    211.34393234            -0.24527991462D-01
     65.128920139           -0.11570158142
     10.034311535            0.55995283317
      4.1596884597           0.56087765073
S    2   1.00
      6.0009041613          -0.22840494325
      0.98255784150          0.71948970378
S    1   1.00
      0.42483192773          1.0000000
S    1   1.00
      0.77185462096D-01      1.0000000
S    1   1.00
      0.30147219702D-01      1.0000000
P    6   1.00
    947.34122823             0.24737208744D-02
    224.09699732             0.19742967060D-01
     71.560334882            0.90357147549D-01
     26.444824490            0.25201602503
     10.393798285            0.39675535929
      4.1606304559           0.23208624517
P    3   1.00
     15.565737135           -0.27129423974D-01
      2.1121544865           0.55109256629
      0.84184709021          1.0090635806
P    1   1.00
      0.32297542652          1.0000000
P    1   1.00
      0.0897480              1.0000000
D    4   1.00
     30.989390993            0.11902837431D-01
      8.6905465069           0.67655856850D-01
      2.9520256337           0.21332539722
      1.0761910745           0.38391075578
D    1   1.00
      0.38338915095           .43354716259
D    1   1.00
      0.12534686113           .24509263822
D    1   1.00
      0.0410000              1.0000000
F    1   1.00
      0.3450000              1.0000000
****





























































