%chk=ts-min.chk
%mem=92Gb
%nprocshared=24
#P UMN15/genecp scf=(maxcyc=500) opt=(TS,tight,noeigentest,calcFC) freq scrf=(smd,solvent=DiChloroEthane)  

Opt

0 1
 C                 -2.00736200   -0.05789900    1.04066100
 C                 -1.61062600   -0.07532500   -0.35547900
 C                 -0.97616800   -0.10101100    2.06104700
 O                  0.22013100   -0.40036900    1.85064900
 O                 -0.43908800   -0.15363400   -0.76475900
 O                  3.32430800   -0.86677700    1.28153300
 O                  2.21167300   -0.65731500   -1.86377000
 O                  0.32805000    2.14595700    0.82296300
 S                  0.92359900    3.01446700   -0.23320400
 S                  4.00430300    0.37709900    1.76274400
 S                  1.84203500   -2.09634700   -1.66275100
 O                  1.71155500    2.09310200   -1.11253500
 O                  1.54637100    4.24857500    0.16971300
 O                  3.03494100    1.47693200    1.46989200
 O                  4.64653700    0.35211600    3.04746000
 O                  1.41674500   -2.21440300   -0.24195800
 O                  1.00836700   -2.71190700   -2.66810500
 C                  3.46147800   -2.97209700   -1.74490700
 C                  5.29787400    0.61944600    0.47773400
 C                 -0.52154100    3.52586000   -1.25713500
 F                  3.32032700   -4.18199300   -1.23575700
 F                  4.36782800   -2.30325300   -1.05751100
 F                  3.83972400   -3.06233500   -3.00585700
 F                  4.67624000    0.69386500   -0.69437300
 F                  6.12441200   -0.40591600    0.47323300
 F                  5.96263700    1.73367500    0.69917400
 F                 -1.13056800    2.46174200   -1.75574500
 F                 -0.11023800    4.29803600   -2.24261800
 F                 -1.37065300    4.19131400   -0.49358300
 C                 -4.50893000    0.30010000    1.11668000
 C                 -4.81006500   -1.20333100    1.41293800
 C                 -6.20249000   -1.60311400    1.13536400
 C                 -4.60169300   -1.38489900    2.87089600
 C                 -1.65469900   -2.90183700    0.35512100
 C                 -3.44697600   -3.18512100   -1.23264900
 C                 -2.07718700   -3.38950100   -0.84235400
 H                 -0.63801200   -3.04664900    0.72357700
 H                 -3.83398700   -3.58208900   -2.17337800
 H                 -1.40687700   -3.95457100   -1.49188700
 N                 -7.31245000   -1.89398800    0.99321500
 N                 -4.45076000   -1.50077400    4.01138500
 N                 -3.85987600   -2.06736100    0.68529700
 N                 -4.29345900   -2.53423200   -0.49380700
 C                 -2.56946600   -2.12248300    1.14033400
 H                 -2.45076700   -2.06401900    2.22555100
 H                 -5.08511000    0.84727000    1.88007700
 C                 -4.86815600    0.90486500   -0.23239600
 C                 -4.31992100    2.17588700   -0.46925500
 C                 -5.65596000    0.30931200   -1.22047100
 C                 -4.52997300    2.82636200   -1.68211400
 H                 -3.69041500    2.63932100    0.29436700
 C                 -5.87750900    0.97187800   -2.43336700
 H                 -6.08612000   -0.68272000   -1.08857700
 C                 -5.31078800    2.22304600   -2.67363400
 H                 -4.07613500    3.80534300   -1.85406300
 H                 -6.49080300    0.49124600   -3.19886400
 H                 -5.47740000    2.72857400   -3.62740100
 Lu                 1.55004400    0.16668600    0.18168300
 O                 -3.16400600    0.56034600    1.48801100
 C                 -1.45306366    0.07021332    3.36763596
 H                 -2.16104549    0.87227287    3.38666770
 H                 -1.92672964   -0.83149023    3.69546404
 H                 -0.63553608    0.30059084    4.01838542
 C                 -2.68145628   -0.19861901   -1.25104756
 H                 -3.55209583   -0.52718470   -0.72290804
 H                 -2.87701749    0.74993066   -1.70592044
 H                 -2.43285784   -0.91274069   -2.00810043

H     0
S    3   1.00
     13.0107010              0.19682158D-01
      1.9622572              0.13796524
      0.44453796             0.47831935
S    1   1.00
      0.12194962             1.0000000
P    1   1.00
      0.8000000              1.0000000
****
C     0
S    5   1.00
   1238.4016938              0.54568832082D-02
    186.29004992             0.40638409211D-01
     42.251176346            0.18025593888
     11.676557932            0.46315121755
      3.5930506482           0.44087173314
S    1   1.00
      0.40245147363          1.0000000
S    1   1.00
      0.13090182668          1.0000000
P    3   1.00
      9.4680970621           0.38387871728D-01
      2.0103545142           0.21117025112
      0.54771004707          0.51328172114
P    1   1.00
      0.15268613795          1.0000000
D    1   1.00
      0.8000000              1.0000000
****
N     0
S    5   1.00
   1712.8415853             -0.53934125305D-02
    257.64812677            -0.40221581118D-01
     58.458245853           -0.17931144990
     16.198367905           -0.46376317823
      5.0052600809          -0.44171422662
S    1   1.00
      0.58731856571          1.0000000
S    1   1.00
      0.18764592253          1.0000000
P    3   1.00
     13.571470233           -0.40072398852D-01
      2.9257372874          -0.21807045028
      0.79927750754         -0.51294466049
P    1   1.00
      0.21954348034          1.0000000
D    1   1.00
      1.0000000              1.0000000
****
O     0
S    5   1.00
   2266.1767785             -0.53431809926D-02
    340.87010191            -0.39890039230D-01
     77.363135167           -0.17853911985
     21.479644940           -0.46427684959
      6.6589433124          -0.44309745172
S    1   1.00
      0.80975975668          1.0000000
S    1   1.00
      0.25530772234          1.0000000
P    3   1.00
     17.721504317            0.43394573193D-01
      3.8635505440           0.23094120765
      1.0480920883           0.51375311064
P    1   1.00
      0.27641544411          1.0000000
D    1   1.00
      1.2000000              1.0000000
****
F     0
S    5   1.00
   2894.8325990             -0.53408255515D-02
    435.41939120            -0.39904258866D-01
     98.843328866           -0.17912768038
     27.485198001           -0.46758090825
      8.5405498171          -0.44653131020
S    1   1.00
      1.0654578038           1.0000000
S    1   1.00
      0.33247346748          1.0000000
P    3   1.00
     22.696633924           -0.45212874436D-01
      4.9872339257          -0.23754317067
      1.3491613954          -0.51287353587
P    1   1.00
      0.34829881977          1.0000000
D    1   1.00
      1.4000000              1.0000000
****
S     0
S    5   1.00
   9184.9303010             -0.22294387756D-02
   1381.5105503             -0.16683029937D-01
    313.87147580            -0.75262436116D-01
     88.053870623           -0.19376827038
     27.039914905           -0.17718020803
S    3   1.00
     45.648731303           -0.10736062573
      4.9664522326           0.65066293018
      2.0116242047           0.59712155354
S    1   1.00
      0.35661077013          1.0000000
S    1   1.00
      0.13507221477          1.0000000
P    5   1.00
    261.98233439            -0.92729929822D-02
     61.306894736           -0.66547669241D-01
     19.103729887           -0.24828595903
      6.6567720378          -0.48703847402
      2.3959635161          -0.39337850312
P    1   1.00
      0.61776161679          1.0000000
P    1   1.00
      0.16993376871          1.0000000
D    1   1.00
      0.5500000              1.0000000
****
Lu     0
S    5   1.00
  95169.767000               0.22000000000D-04
  15488.403000               0.14500000000D-03
   3776.2335000              0.65100000000D-03
   1079.0501000              0.20380000000D-02
    268.95380000             0.51270000000D-02
S    1   1.00
     63.467900000            1.0000000
S    1   1.00
     45.133200000            1.0000000
S    1   1.00
     21.456800000            1.0000000
S    1   1.00
      5.3483000000           1.0000000
S    1   1.00
      2.6778000000           1.0000000
S    1   1.00
      1.0287000000           1.0000000
S    1   1.00
      0.44080000000          1.0000000
S    1   1.00
      0.79100000000D-01      1.0000000
S    1   1.00
      0.31300000000D-01      1.0000000
P    3   1.00
     12.333733920           -0.15313031066
     11.080331415           -0.20300664852
      2.0341747228          -0.19458361263
P    6   1.00
   1500.5317313             -0.10192569555D-02
    382.39748937            -0.59476212135D-02
    132.99969628            -0.16265160929D-01
     46.110032419           -0.35623845839D-01
     15.583529011            0.23709171074
      5.7856677022          -0.30670977844
P    1   1.00
      3.7823361008           1.0000000
P    1   1.00
      1.3682592248           1.0000000
P    1   1.00
      0.57288205601          1.0000000
P    1   1.00
      0.22793165135          1.0000000
P    1   1.00
      0.81403917986D-01      1.0000000
P    1   1.00
      0.29091071778D-01      1.0000000
D    6   1.00
    484.52750000             0.22860000000D-02
    146.66550000             0.18629000000D-01
     56.377900000            0.74088000000D-01
     23.671100000            0.16155400000
      9.4401000000           0.30809100000
      4.3712000000           0.44833400000
D    1   1.00
      1.9580000000           1.0000000
D    1   1.00
      0.72720000000          1.0000000
D    1   1.00
      0.24600000000          1.0000000
D    1   1.00
      0.74400000000D-01      1.0000000
F    5   1.00
    175.15590000             0.41020000000D-02
     62.890900000            0.39086000000D-01
     28.362400000            0.14704400000
     13.247800000            0.27109200000
      6.1440000000           0.34566500000
F    1   1.00
      2.7623000000           1.0000000
F    1   1.00
      1.1574000000           1.0000000
F    1   1.00
      0.42440000000          1.0000000
G    1   1.00
      0.70090000000          1.0000000
****

Lu     0
Lu-ECP     5     28
h potential
  1
2      1.00000000             0.00000000
s-h potential
  1
2     35.16209700           989.99558400
p-h potential
  1
2     19.46440200           278.86565200
d-h potential
  1
2     10.00686500            71.00917800
f-h potential
  1
2     23.51793200           -47.40589000
g-h potential
  1
2     29.41223800           -35.55714600









