%chk=ts-min.chk
%mem=616Gb
%nprocshared=24
#opt=(calcfc,tight,modred) freq MN15/gen scf=(maxcyc=500) scrf=(smd,solvent=DiChloroEthane)    

ts opt for i3 Going from i2 to i3, where we are forming bond 1-54

0 1
C                 -1.6314370000      0.3162650000      1.1455910000
C                 -1.3308600000      0.1330480000     -0.2431280000
C                 -0.5305980000      0.1989040000      2.0536700000
O                  0.5925950000     -0.2767850000      1.7594320000
O                 -0.2073590000     -0.0317450000     -0.7574040000
O                 -2.3997970000      0.0575450000     -1.0197490000
O                 -0.7750920000      0.4981030000      3.3191790000
C                 -2.1841050000     -0.1438150000     -2.4173670000
C                  0.3398280000      0.4460520000      4.2162310000
H                 -3.1772790000     -0.2924190000     -2.8558550000
H                 -1.5308370000     -1.0136310000     -2.5810960000
H                 -1.7027870000      0.7413320000     -2.8520400000
H                 -0.0035580000      0.8932450000      5.1540120000
H                  1.1864360000      1.0057360000      3.7955740000
H                  0.6516520000     -0.5942860000      4.3792110000
O                  3.5823780000     -0.8120970000      0.7897860000
O                  2.2254400000     -0.7443750000     -1.9011920000
O                  0.6624690000      2.1852520000      0.5617250000
S                  1.3666850000      2.8935460000     -0.5407860000
S                  4.0450580000      0.2527960000      1.7462070000
S                  1.7184180000     -2.1257880000     -1.6553190000
O                  2.2901030000      1.8637850000     -1.1268010000
O                  1.8796840000      4.2136590000     -0.3122640000
O                  2.9871320000      1.3005780000      1.6345280000
O                  4.4728450000     -0.1561980000      3.0548680000
O                  1.4280630000     -2.1977540000     -0.1971750000
O                  0.6966630000     -2.6405120000     -2.5471860000
C                  3.1723490000     -3.2223560000     -1.9141890000
C                  5.5062890000      0.9805530000      0.8953030000
C                  0.0519020000      3.0730320000     -1.8579800000
F                  2.8479640000     -4.4387600000     -1.5035070000
F                  4.2063540000     -2.7843510000     -1.2326650000
F                  3.4639850000     -3.2562010000     -3.2008480000
F                  5.1758950000      1.2856070000     -0.3443870000
F                  6.4885920000      0.0996210000      0.8913300000
F                  5.8847670000      2.0675770000      1.5385790000
F                 -1.1463630000      2.8607610000     -1.3180440000
F                  0.2388930000      2.1905400000     -2.8222180000
F                  0.0872460000      4.2892270000     -2.3595870000
C                 -4.3341830000      0.4516060000      1.2419740000
C                 -4.5132500000     -1.0622470000      1.5949050000
C                 -5.8609320000     -1.5726680000      1.2749640000
C                 -4.3665620000     -1.1770000000      3.0653150000
C                 -1.2294650000     -2.6868390000      0.8371880000
C                 -2.8782540000     -3.1373520000     -0.8454680000
C                 -1.5330310000     -3.2380180000     -0.3779550000
H                 -0.2244010000     -2.7291150000      1.2574790000
H                 -3.1909850000     -3.5965250000     -1.7857810000
H                 -0.7723390000     -3.7394520000     -0.9783910000
N                 -6.9394200000     -1.9563070000      1.1087400000
N                 -4.2438540000     -1.2304890000      4.2149400000
N                 -3.4818730000     -1.9383780000      0.9684320000
N                 -3.8117210000     -2.5036160000     -0.1886170000
C                 -2.2384650000     -1.9484440000      1.5021570000
H                 -2.1547630000     -1.6519930000      2.5486100000
C                 -2.9116740000      0.9879230000      1.6038290000
H                 -2.9009530000      2.0349290000      1.2598940000
H                 -2.8567610000      1.0373720000      2.7007100000
Sc                 1.7677810000      0.1563420000      0.0787320000
H                 -4.9734960000      0.9274840000      2.0061770000
C                 -4.9231750000      0.9449780000     -0.0757130000
C                 -5.0623100000      2.3357830000     -0.1998750000
C                 -5.3704960000      0.1402820000     -1.1286890000
C                 -5.6077010000      2.9092240000     -1.3467320000
H                 -4.7472800000      2.9873730000      0.6207830000
C                 -5.9283620000      0.7123200000     -2.2754870000
H                 -5.2774990000     -0.9444110000     -1.0797530000
C                 -6.0434890000      2.0963990000     -2.3947720000
H                 -5.7009550000      3.9948990000     -1.4158490000
H                 -6.2740900000      0.0619150000     -3.0821230000
H                 -6.4771150000      2.5394010000     -3.2934930000

1 54  f
54 1  f

H     0
S    3   1.00
     13.0107010              0.19682158D-01
      1.9622572              0.13796524
      0.44453796             0.47831935
S    1   1.00
      0.12194962             1.0000000
P    1   1.00
      0.8000000              1.0000000
****
C     0
S    5   1.00
   1238.4016938              0.54568832082D-02
    186.29004992             0.40638409211D-01
     42.251176346            0.18025593888
     11.676557932            0.46315121755
      3.5930506482           0.44087173314
S    1   1.00
      0.40245147363          1.0000000
S    1   1.00
      0.13090182668          1.0000000
P    3   1.00
      9.4680970621           0.38387871728D-01
      2.0103545142           0.21117025112
      0.54771004707          0.51328172114
P    1   1.00
      0.15268613795          1.0000000
D    1   1.00
      0.8000000              1.0000000
****
N     0
S    5   1.00
   1712.8415853             -0.53934125305D-02
    257.64812677            -0.40221581118D-01
     58.458245853           -0.17931144990
     16.198367905           -0.46376317823
      5.0052600809          -0.44171422662
S    1   1.00
      0.58731856571          1.0000000
S    1   1.00
      0.18764592253          1.0000000
P    3   1.00
     13.571470233           -0.40072398852D-01
      2.9257372874          -0.21807045028
      0.79927750754         -0.51294466049
P    1   1.00
      0.21954348034          1.0000000
D    1   1.00
      1.0000000              1.0000000
****
O     0
S    5   1.00
   2266.1767785             -0.53431809926D-02
    340.87010191            -0.39890039230D-01
     77.363135167           -0.17853911985
     21.479644940           -0.46427684959
      6.6589433124          -0.44309745172
S    1   1.00
      0.80975975668          1.0000000
S    1   1.00
      0.25530772234          1.0000000
P    3   1.00
     17.721504317            0.43394573193D-01
      3.8635505440           0.23094120765
      1.0480920883           0.51375311064
P    1   1.00
      0.27641544411          1.0000000
D    1   1.00
      1.2000000              1.0000000
****
F     0
S    5   1.00
   2894.8325990             -0.53408255515D-02
    435.41939120            -0.39904258866D-01
     98.843328866           -0.17912768038
     27.485198001           -0.46758090825
      8.5405498171          -0.44653131020
S    1   1.00
      1.0654578038           1.0000000
S    1   1.00
      0.33247346748          1.0000000
P    3   1.00
     22.696633924           -0.45212874436D-01
      4.9872339257          -0.23754317067
      1.3491613954          -0.51287353587
P    1   1.00
      0.34829881977          1.0000000
D    1   1.00
      1.4000000              1.0000000
****
S     0
S    5   1.00
   9184.9303010             -0.22294387756D-02
   1381.5105503             -0.16683029937D-01
    313.87147580            -0.75262436116D-01
     88.053870623           -0.19376827038
     27.039914905           -0.17718020803
S    3   1.00
     45.648731303           -0.10736062573
      4.9664522326           0.65066293018
      2.0116242047           0.59712155354
S    1   1.00
      0.35661077013          1.0000000
S    1   1.00
      0.13507221477          1.0000000
P    5   1.00
    261.98233439            -0.92729929822D-02
     61.306894736           -0.66547669241D-01
     19.103729887           -0.24828595903
      6.6567720378          -0.48703847402
      2.3959635161          -0.39337850312
P    1   1.00
      0.61776161679          1.0000000
P    1   1.00
      0.16993376871          1.0000000
D    1   1.00
      0.5500000              1.0000000
****
Sc     0
S    8   1.00
 191612.9187400              0.23076475942D-03
  28723.8503630              0.17890329946D-02
   6537.0116490              0.92990401140D-02
   1850.3097171              0.37739438011D-01
    602.38855156             0.12227148359
    216.17324766             0.28814821470
     83.712517880            0.40517543099
     32.908707189            0.20566019623
S    4   1.00
    211.34393234            -0.24527991462D-01
     65.128920139           -0.11570158142
     10.034311535            0.55995283317
      4.1596884597           0.56087765073
S    2   1.00
      6.0009041613          -0.22840494325
      0.98255784150          0.71948970378
S    1   1.00
      0.42483192773          1.0000000
S    1   1.00
      0.77185462096D-01      1.0000000
S    1   1.00
      0.30147219702D-01      1.0000000
P    6   1.00
    947.34122823             0.24737208744D-02
    224.09699732             0.19742967060D-01
     71.560334882            0.90357147549D-01
     26.444824490            0.25201602503
     10.393798285            0.39675535929
      4.1606304559           0.23208624517
P    3   1.00
     15.565737135           -0.27129423974D-01
      2.1121544865           0.55109256629
      0.84184709021          1.0090635806
P    1   1.00
      0.32297542652          1.0000000
P    1   1.00
      0.0897480              1.0000000
D    4   1.00
     30.989390993            0.11902837431D-01
      8.6905465069           0.67655856850D-01
      2.9520256337           0.21332539722
      1.0761910745           0.38391075578
D    1   1.00
      0.38338915095           .43354716259
D    1   1.00
      0.12534686113           .24509263822
D    1   1.00
      0.0410000              1.0000000
F    1   1.00
      0.3450000              1.0000000
****

--link1--
%chk=ts-min.chk
%mem=616Gb
%nprocshared=24
#opt=(ts,noeigentest,tight,readfc,modred) freq  MN15/gen scf=(maxcyc=500) geom=check guess=read scrf=(smd,solvent=DiChloroEthane)   

ts3 opt

0 1

1 54 a
54 1 a

H     0
S    3   1.00
     13.0107010              0.19682158D-01
      1.9622572              0.13796524
      0.44453796             0.47831935
S    1   1.00
      0.12194962             1.0000000
P    1   1.00
      0.8000000              1.0000000
****
C     0
S    5   1.00
   1238.4016938              0.54568832082D-02
    186.29004992             0.40638409211D-01
     42.251176346            0.18025593888
     11.676557932            0.46315121755
      3.5930506482           0.44087173314
S    1   1.00
      0.40245147363          1.0000000
S    1   1.00
      0.13090182668          1.0000000
P    3   1.00
      9.4680970621           0.38387871728D-01
      2.0103545142           0.21117025112
      0.54771004707          0.51328172114
P    1   1.00
      0.15268613795          1.0000000
D    1   1.00
      0.8000000              1.0000000
****
N     0
S    5   1.00
   1712.8415853             -0.53934125305D-02
    257.64812677            -0.40221581118D-01
     58.458245853           -0.17931144990
     16.198367905           -0.46376317823
      5.0052600809          -0.44171422662
S    1   1.00
      0.58731856571          1.0000000
S    1   1.00
      0.18764592253          1.0000000
P    3   1.00
     13.571470233           -0.40072398852D-01
      2.9257372874          -0.21807045028
      0.79927750754         -0.51294466049
P    1   1.00
      0.21954348034          1.0000000
D    1   1.00
      1.0000000              1.0000000
****
O     0
S    5   1.00
   2266.1767785             -0.53431809926D-02
    340.87010191            -0.39890039230D-01
     77.363135167           -0.17853911985
     21.479644940           -0.46427684959
      6.6589433124          -0.44309745172
S    1   1.00
      0.80975975668          1.0000000
S    1   1.00
      0.25530772234          1.0000000
P    3   1.00
     17.721504317            0.43394573193D-01
      3.8635505440           0.23094120765
      1.0480920883           0.51375311064
P    1   1.00
      0.27641544411          1.0000000
D    1   1.00
      1.2000000              1.0000000
****
F     0
S    5   1.00
   2894.8325990             -0.53408255515D-02
    435.41939120            -0.39904258866D-01
     98.843328866           -0.17912768038
     27.485198001           -0.46758090825
      8.5405498171          -0.44653131020
S    1   1.00
      1.0654578038           1.0000000
S    1   1.00
      0.33247346748          1.0000000
P    3   1.00
     22.696633924           -0.45212874436D-01
      4.9872339257          -0.23754317067
      1.3491613954          -0.51287353587
P    1   1.00
      0.34829881977          1.0000000
D    1   1.00
      1.4000000              1.0000000
****
S     0
S    5   1.00
   9184.9303010             -0.22294387756D-02
   1381.5105503             -0.16683029937D-01
    313.87147580            -0.75262436116D-01
     88.053870623           -0.19376827038
     27.039914905           -0.17718020803
S    3   1.00
     45.648731303           -0.10736062573
      4.9664522326           0.65066293018
      2.0116242047           0.59712155354
S    1   1.00
      0.35661077013          1.0000000
S    1   1.00
      0.13507221477          1.0000000
P    5   1.00
    261.98233439            -0.92729929822D-02
     61.306894736           -0.66547669241D-01
     19.103729887           -0.24828595903
      6.6567720378          -0.48703847402
      2.3959635161          -0.39337850312
P    1   1.00
      0.61776161679          1.0000000
P    1   1.00
      0.16993376871          1.0000000
D    1   1.00
      0.5500000              1.0000000
****
Sc     0
S    8   1.00
 191612.9187400              0.23076475942D-03
  28723.8503630              0.17890329946D-02
   6537.0116490              0.92990401140D-02
   1850.3097171              0.37739438011D-01
    602.38855156             0.12227148359
    216.17324766             0.28814821470
     83.712517880            0.40517543099
     32.908707189            0.20566019623
S    4   1.00
    211.34393234            -0.24527991462D-01
     65.128920139           -0.11570158142
     10.034311535            0.55995283317
      4.1596884597           0.56087765073
S    2   1.00
      6.0009041613          -0.22840494325
      0.98255784150          0.71948970378
S    1   1.00
      0.42483192773          1.0000000
S    1   1.00
      0.77185462096D-01      1.0000000
S    1   1.00
      0.30147219702D-01      1.0000000
P    6   1.00
    947.34122823             0.24737208744D-02
    224.09699732             0.19742967060D-01
     71.560334882            0.90357147549D-01
     26.444824490            0.25201602503
     10.393798285            0.39675535929
      4.1606304559           0.23208624517
P    3   1.00
     15.565737135           -0.27129423974D-01
      2.1121544865           0.55109256629
      0.84184709021          1.0090635806
P    1   1.00
      0.32297542652          1.0000000
P    1   1.00
      0.0897480              1.0000000
D    4   1.00
     30.989390993            0.11902837431D-01
      8.6905465069           0.67655856850D-01
      2.9520256337           0.21332539722
      1.0761910745           0.38391075578
D    1   1.00
      0.38338915095           .43354716259
D    1   1.00
      0.12534686113           .24509263822
D    1   1.00
      0.0410000              1.0000000
F    1   1.00
      0.3450000              1.0000000
****







































































