%chk=ts3.chk
%mem=616Gb
%nprocshared=24
# irc=(maxpoints=100,recorrect=never,calcfc,maxcycles=500,nogradstop) MN15/gen scrf=(smd,solvent=DiChloroEthane)  

IRC for Going from i2 to i3, where we are forming bond 7-66

0 1
C                  5.6288590000     -0.7182770000      0.1771780000
C                  5.9618350000     -1.4034000000      1.3551750000
C                  7.1538580000     -2.1266580000      1.4382910000
C                  8.0247770000     -2.1774810000      0.3480350000
C                  7.7003870000     -1.4998710000     -0.8296860000
C                  6.5106020000     -0.7760830000     -0.9121150000
C                  1.7540330000      0.0141230000      0.5341170000
C                  1.1663490000      0.2106080000     -0.7817310000
C                  0.8121140000     -0.2539610000      1.6047660000
H                  5.2951450000     -1.3798490000      2.2204940000
H                  7.3996360000     -2.6556830000      2.3616980000
H                  8.9545990000     -2.7467430000      0.4151560000
H                  8.3738560000     -1.5364810000     -1.6887620000
H                  6.2551100000     -0.2451070000     -1.8336810000
O                 -0.3998610000      0.0686990000      1.5788590000
O                 -0.0471710000      0.2183190000     -1.0631260000
O                  2.0424450000      0.4716290000     -1.7242380000
O                  1.3195610000     -0.7519500000      2.7037100000
C                  1.5539170000      0.8052010000     -3.0285590000
C                  0.4275770000     -0.9853300000      3.8023130000
H                  2.4275350000      1.1180370000     -3.6094600000
H                  0.8203680000      1.6208250000     -2.9589670000
H                  1.0812190000     -0.0709810000     -3.4908890000
H                  1.0257500000     -1.4671970000      4.5815730000
H                 -0.3938570000     -1.6411790000      3.4836120000
H                  0.0183890000     -0.0336160000      4.1656780000
O                 -3.4582320000      0.4546910000      1.3636010000
O                 -2.8986430000      0.7317260000     -1.5383170000
O                 -0.4160160000     -2.2371480000      0.1635780000
S                 -1.1437780000     -2.8629000000     -0.9709980000
S                 -3.8728030000     -0.8819870000      1.8984890000
S                 -2.6459150000      2.1558950000     -1.1376700000
O                 -2.1634470000     -1.8464160000     -1.3947160000
O                 -1.5839550000     -4.2278100000     -0.8430100000
O                 -2.8312270000     -1.8128120000      1.3697670000
O                 -4.2431350000     -0.9759710000      3.2842540000
O                 -1.7898570000      2.0631760000      0.0739490000
O                 -2.2417610000      3.0731090000     -2.1757880000
C                 -4.3069840000      2.7607160000     -0.5300450000
C                 -5.3632800000     -1.2773360000      0.8936830000
C                  0.0861780000     -2.8577520000     -2.3799310000
F                 -4.1730210000      3.2606400000      0.6815570000
F                 -5.1738570000      1.7676890000     -0.5113620000
F                 -4.7377730000      3.7010490000     -1.3497230000
F                 -5.0332360000     -1.1977680000     -0.3838980000
F                 -6.3167250000     -0.4077680000      1.1637740000
F                 -5.7764950000     -2.4974050000      1.1726940000
F                  0.2699940000     -4.0904590000     -2.8028540000
F                  1.2425270000     -2.3635660000     -1.9587030000
F                 -0.3656440000     -2.1113750000     -3.3698590000
C                  4.3569090000      0.0967460000      0.0389170000
H                  4.1993900000      0.2912330000     -1.0311030000
C                  4.5287990000      1.5303840000      0.6415110000
C                  5.6899070000      2.2075710000      0.0305750000
C                  4.7475970000      1.4686570000      2.1030980000
C                  1.0074530000      2.7814500000      0.7245720000
C                  2.2504480000      3.5896520000     -1.1722850000
C                  1.0306970000      3.5251330000     -0.4112660000
H                  0.1222020000      2.7015540000      1.3542050000
H                  2.3125760000      4.1647020000     -2.0986710000
H                  0.1521860000      4.0802960000     -0.7442550000
N                  6.6411410000      2.6805400000     -0.4262110000
N                  4.9036010000      1.3772830000      3.2457160000
N                  3.3071170000      2.3050950000      0.3583130000
N                  3.3393780000      2.9941280000     -0.7927740000
C                  2.1704160000      1.9983180000      1.0598930000
H                  2.3404190000      1.7007080000      2.1000050000
Sc                -1.7831810000     -0.2679610000      0.0658040000
C                  3.1352470000     -0.6291910000      0.6333240000
H                  3.1020890000     -1.6223580000      0.1560240000
H                  3.3237500000     -0.8090140000      1.7012040000

H     0
S    3   1.00
     13.0107010              0.19682158D-01
      1.9622572              0.13796524
      0.44453796             0.47831935
S    1   1.00
      0.12194962             1.0000000
P    1   1.00
      0.8000000              1.0000000
****
C     0
S    5   1.00
   1238.4016938              0.54568832082D-02
    186.29004992             0.40638409211D-01
     42.251176346            0.18025593888
     11.676557932            0.46315121755
      3.5930506482           0.44087173314
S    1   1.00
      0.40245147363          1.0000000
S    1   1.00
      0.13090182668          1.0000000
P    3   1.00
      9.4680970621           0.38387871728D-01
      2.0103545142           0.21117025112
      0.54771004707          0.51328172114
P    1   1.00
      0.15268613795          1.0000000
D    1   1.00
      0.8000000              1.0000000
****
N     0
S    5   1.00
   1712.8415853             -0.53934125305D-02
    257.64812677            -0.40221581118D-01
     58.458245853           -0.17931144990
     16.198367905           -0.46376317823
      5.0052600809          -0.44171422662
S    1   1.00
      0.58731856571          1.0000000
S    1   1.00
      0.18764592253          1.0000000
P    3   1.00
     13.571470233           -0.40072398852D-01
      2.9257372874          -0.21807045028
      0.79927750754         -0.51294466049
P    1   1.00
      0.21954348034          1.0000000
D    1   1.00
      1.0000000              1.0000000
****
O     0
S    5   1.00
   2266.1767785             -0.53431809926D-02
    340.87010191            -0.39890039230D-01
     77.363135167           -0.17853911985
     21.479644940           -0.46427684959
      6.6589433124          -0.44309745172
S    1   1.00
      0.80975975668          1.0000000
S    1   1.00
      0.25530772234          1.0000000
P    3   1.00
     17.721504317            0.43394573193D-01
      3.8635505440           0.23094120765
      1.0480920883           0.51375311064
P    1   1.00
      0.27641544411          1.0000000
D    1   1.00
      1.2000000              1.0000000
****
F     0
S    5   1.00
   2894.8325990             -0.53408255515D-02
    435.41939120            -0.39904258866D-01
     98.843328866           -0.17912768038
     27.485198001           -0.46758090825
      8.5405498171          -0.44653131020
S    1   1.00
      1.0654578038           1.0000000
S    1   1.00
      0.33247346748          1.0000000
P    3   1.00
     22.696633924           -0.45212874436D-01
      4.9872339257          -0.23754317067
      1.3491613954          -0.51287353587
P    1   1.00
      0.34829881977          1.0000000
D    1   1.00
      1.4000000              1.0000000
****
S     0
S    5   1.00
   9184.9303010             -0.22294387756D-02
   1381.5105503             -0.16683029937D-01
    313.87147580            -0.75262436116D-01
     88.053870623           -0.19376827038
     27.039914905           -0.17718020803
S    3   1.00
     45.648731303           -0.10736062573
      4.9664522326           0.65066293018
      2.0116242047           0.59712155354
S    1   1.00
      0.35661077013          1.0000000
S    1   1.00
      0.13507221477          1.0000000
P    5   1.00
    261.98233439            -0.92729929822D-02
     61.306894736           -0.66547669241D-01
     19.103729887           -0.24828595903
      6.6567720378          -0.48703847402
      2.3959635161          -0.39337850312
P    1   1.00
      0.61776161679          1.0000000
P    1   1.00
      0.16993376871          1.0000000
D    1   1.00
      0.5500000              1.0000000
****
Sc     0
S    8   1.00
 191612.9187400              0.23076475942D-03
  28723.8503630              0.17890329946D-02
   6537.0116490              0.92990401140D-02
   1850.3097171              0.37739438011D-01
    602.38855156             0.12227148359
    216.17324766             0.28814821470
     83.712517880            0.40517543099
     32.908707189            0.20566019623
S    4   1.00
    211.34393234            -0.24527991462D-01
     65.128920139           -0.11570158142
     10.034311535            0.55995283317
      4.1596884597           0.56087765073
S    2   1.00
      6.0009041613          -0.22840494325
      0.98255784150          0.71948970378
S    1   1.00
      0.42483192773          1.0000000
S    1   1.00
      0.77185462096D-01      1.0000000
S    1   1.00
      0.30147219702D-01      1.0000000
P    6   1.00
    947.34122823             0.24737208744D-02
    224.09699732             0.19742967060D-01
     71.560334882            0.90357147549D-01
     26.444824490            0.25201602503
     10.393798285            0.39675535929
      4.1606304559           0.23208624517
P    3   1.00
     15.565737135           -0.27129423974D-01
      2.1121544865           0.55109256629
      0.84184709021          1.0090635806
P    1   1.00
      0.32297542652          1.0000000
P    1   1.00
      0.0897480              1.0000000
D    4   1.00
     30.989390993            0.11902837431D-01
      8.6905465069           0.67655856850D-01
      2.9520256337           0.21332539722
      1.0761910745           0.38391075578
D    1   1.00
      0.38338915095           .43354716259
D    1   1.00
      0.12534686113           .24509263822
D    1   1.00
      0.0410000              1.0000000
F    1   1.00
      0.3450000              1.0000000
****

























