%chk=i3-minor.chk
%mem=616Gb
%nprocshared=24
#P  UMN15/genecp scf=(maxcyc=500) opt=tight scrf=(smd,solvent=DiChloroEthane)  

Opt

0 1
 C                 -2.12905900   -0.30077600    0.93906900
 C                 -1.63329700   -0.40483600   -0.53805400
 C                 -0.97263900   -0.05351800    1.92884500
 O                  0.13334300   -0.55135400    1.71398900
 O                 -0.48638300   -0.06385900   -0.81027200
 O                  3.25301300   -1.01075700    1.20381700
 O                  2.19987900   -0.62209600   -1.96521700
 O                  0.31473500    2.08393400    0.77861800
 S                  0.98340600    2.99040100   -0.20093500
 S                  3.82431200    0.14859000    1.96483300
 S                  1.71827000   -2.03981600   -1.84386500
 O                  1.84868400    2.09430700   -1.03831300
 O                  1.56488900    4.21123700    0.28898300
 O                  2.90052300    1.28394900    1.64837500
 O                  4.21065400   -0.05911700    3.33184600
 O                  1.24392000   -2.17171100   -0.43572300
 O                  0.86255100   -2.54056600   -2.88935400
 C                  3.26291200   -3.04047400   -1.92324600
 C                  5.34632100    0.55755100    1.01066200
 C                 -0.36317600    3.51353100   -1.34677600
 F                  2.98904300   -4.27216000   -1.53823200
 F                  4.17490900   -2.51613100   -1.12913500
 F                  3.70399900   -3.04764100   -3.16577800
 F                  5.00609100    0.75017600   -0.25639600
 F                  6.19676700   -0.44421400    1.09347300
 F                  5.88936700    1.65411600    1.49534600
 F                 -0.91168500    2.45930500   -1.92333100
 F                  0.14178600    4.30919000   -2.26740900
 F                 -1.28134500    4.16182900   -0.65146900
 C                 -4.40348000    0.71956000    0.88577600
 C                 -4.93840800   -0.59108200    1.52128700
 C                 -6.38686700   -0.76982800    1.30151400
 C                 -4.76398600   -0.48704500    3.00209700
 C                 -2.01972500   -2.84258000    0.81773200
 C                 -4.16787800   -3.89330800    0.44879400
 C                 -2.70679300   -3.90732700    0.38312400
 H                 -0.92527400   -2.80994300    0.80692600
 H                 -4.74721700   -4.79119400    0.22039900
 H                 -2.19962700   -4.78957500   -0.00983300
 N                 -7.54345900   -0.83205800    1.20069300
 N                 -4.58558000   -0.41492200    4.14355900
 N                 -4.15223200   -1.68542400    0.98396400
 N                 -4.83756000   -2.83927500    0.74981300
 C                 -2.75123400   -1.66099700    1.39644000
 H                 -2.67528100   -1.68266500    2.50729200
 H                 -4.81157000    1.56246700    1.46325800
 C                 -4.70867300    0.94699700   -0.58202000
 C                 -4.14144900    2.10906300   -1.12772000
 C                 -5.45052600    0.09506400   -1.40706100
 C                 -4.29880000    2.40883200   -2.47940200
 H                 -3.55472100    2.77057800   -0.48544700
 C                 -5.62212500    0.40557300   -2.75881000
 H                 -5.86772800   -0.84226600   -1.03368900
 C                 -5.04359200    1.55508700   -3.29933100
 H                 -3.83957900    3.30963300   -2.89254700
 H                 -6.19831000   -0.26957600   -3.39478000
 H                 -5.17213700    1.78626700   -4.35901000
 Lu                 1.57019500    0.12830200    0.10912000
 O                 -3.00530700    0.77849600    1.14294100
 C                 -1.25275800    0.73199300    3.14845600
 H                 -1.47086300    1.76495000    2.83398100
 H                 -2.15634300    0.36083700    3.65593100
 H                 -0.38088200    0.70684700    3.81156900
 C                 -2.46470800   -0.94758600   -1.64643700
 H                 -3.36297500   -1.47896800   -1.32503700
 H                 -2.74668200   -0.10285200   -2.29899300
 H                 -1.80340300   -1.60235300   -2.23503100

H     0
S    3   1.00
     13.0107010              0.19682158D-01
      1.9622572              0.13796524
      0.44453796             0.47831935
S    1   1.00
      0.12194962             1.0000000
P    1   1.00
      0.8000000              1.0000000
****
C     0
S    5   1.00
   1238.4016938              0.54568832082D-02
    186.29004992             0.40638409211D-01
     42.251176346            0.18025593888
     11.676557932            0.46315121755
      3.5930506482           0.44087173314
S    1   1.00
      0.40245147363          1.0000000
S    1   1.00
      0.13090182668          1.0000000
P    3   1.00
      9.4680970621           0.38387871728D-01
      2.0103545142           0.21117025112
      0.54771004707          0.51328172114
P    1   1.00
      0.15268613795          1.0000000
D    1   1.00
      0.8000000              1.0000000
****
N     0
S    5   1.00
   1712.8415853             -0.53934125305D-02
    257.64812677            -0.40221581118D-01
     58.458245853           -0.17931144990
     16.198367905           -0.46376317823
      5.0052600809          -0.44171422662
S    1   1.00
      0.58731856571          1.0000000
S    1   1.00
      0.18764592253          1.0000000
P    3   1.00
     13.571470233           -0.40072398852D-01
      2.9257372874          -0.21807045028
      0.79927750754         -0.51294466049
P    1   1.00
      0.21954348034          1.0000000
D    1   1.00
      1.0000000              1.0000000
****
O     0
S    5   1.00
   2266.1767785             -0.53431809926D-02
    340.87010191            -0.39890039230D-01
     77.363135167           -0.17853911985
     21.479644940           -0.46427684959
      6.6589433124          -0.44309745172
S    1   1.00
      0.80975975668          1.0000000
S    1   1.00
      0.25530772234          1.0000000
P    3   1.00
     17.721504317            0.43394573193D-01
      3.8635505440           0.23094120765
      1.0480920883           0.51375311064
P    1   1.00
      0.27641544411          1.0000000
D    1   1.00
      1.2000000              1.0000000
****
F     0
S    5   1.00
   2894.8325990             -0.53408255515D-02
    435.41939120            -0.39904258866D-01
     98.843328866           -0.17912768038
     27.485198001           -0.46758090825
      8.5405498171          -0.44653131020
S    1   1.00
      1.0654578038           1.0000000
S    1   1.00
      0.33247346748          1.0000000
P    3   1.00
     22.696633924           -0.45212874436D-01
      4.9872339257          -0.23754317067
      1.3491613954          -0.51287353587
P    1   1.00
      0.34829881977          1.0000000
D    1   1.00
      1.4000000              1.0000000
****
S     0
S    5   1.00
   9184.9303010             -0.22294387756D-02
   1381.5105503             -0.16683029937D-01
    313.87147580            -0.75262436116D-01
     88.053870623           -0.19376827038
     27.039914905           -0.17718020803
S    3   1.00
     45.648731303           -0.10736062573
      4.9664522326           0.65066293018
      2.0116242047           0.59712155354
S    1   1.00
      0.35661077013          1.0000000
S    1   1.00
      0.13507221477          1.0000000
P    5   1.00
    261.98233439            -0.92729929822D-02
     61.306894736           -0.66547669241D-01
     19.103729887           -0.24828595903
      6.6567720378          -0.48703847402
      2.3959635161          -0.39337850312
P    1   1.00
      0.61776161679          1.0000000
P    1   1.00
      0.16993376871          1.0000000
D    1   1.00
      0.5500000              1.0000000
****
Lu     0
S    5   1.00
  95169.767000               0.22000000000D-04
  15488.403000               0.14500000000D-03
   3776.2335000              0.65100000000D-03
   1079.0501000              0.20380000000D-02
    268.95380000             0.51270000000D-02
S    1   1.00
     63.467900000            1.0000000
S    1   1.00
     45.133200000            1.0000000
S    1   1.00
     21.456800000            1.0000000
S    1   1.00
      5.3483000000           1.0000000
S    1   1.00
      2.6778000000           1.0000000
S    1   1.00
      1.0287000000           1.0000000
S    1   1.00
      0.44080000000          1.0000000
S    1   1.00
      0.79100000000D-01      1.0000000
S    1   1.00
      0.31300000000D-01      1.0000000
P    3   1.00
     12.333733920           -0.15313031066
     11.080331415           -0.20300664852
      2.0341747228          -0.19458361263
P    6   1.00
   1500.5317313             -0.10192569555D-02
    382.39748937            -0.59476212135D-02
    132.99969628            -0.16265160929D-01
     46.110032419           -0.35623845839D-01
     15.583529011            0.23709171074
      5.7856677022          -0.30670977844
P    1   1.00
      3.7823361008           1.0000000
P    1   1.00
      1.3682592248           1.0000000
P    1   1.00
      0.57288205601          1.0000000
P    1   1.00
      0.22793165135          1.0000000
P    1   1.00
      0.81403917986D-01      1.0000000
P    1   1.00
      0.29091071778D-01      1.0000000
D    6   1.00
    484.52750000             0.22860000000D-02
    146.66550000             0.18629000000D-01
     56.377900000            0.74088000000D-01
     23.671100000            0.16155400000
      9.4401000000           0.30809100000
      4.3712000000           0.44833400000
D    1   1.00
      1.9580000000           1.0000000
D    1   1.00
      0.72720000000          1.0000000
D    1   1.00
      0.24600000000          1.0000000
D    1   1.00
      0.74400000000D-01      1.0000000
F    5   1.00
    175.15590000             0.41020000000D-02
     62.890900000            0.39086000000D-01
     28.362400000            0.14704400000
     13.247800000            0.27109200000
      6.1440000000           0.34566500000
F    1   1.00
      2.7623000000           1.0000000
F    1   1.00
      1.1574000000           1.0000000
F    1   1.00
      0.42440000000          1.0000000
G    1   1.00
      0.70090000000          1.0000000
****

Lu     0
Lu-ECP     5     28
h potential
  1
2      1.00000000             0.00000000
s-h potential
  1
2     35.16209700           989.99558400
p-h potential
  1
2     19.46440200           278.86565200
d-h potential
  1
2     10.00686500            71.00917800
f-h potential
  1
2     23.51793200           -47.40589000
g-h potential
  1
2     29.41223800           -35.55714600




