%chk=scan-CC
%mem=616GB
%nprocshared=24
#opt=(modred) freq UMN15/genecp scrf=(smd,solvent=DiChloroEthane)

Scan

0 2
C                 -4.92736600    1.11285400    0.81958400
 C                 -5.76495300    1.82560900   -0.04671300
 C                 -6.61161800    2.81044200    0.46142500
 C                 -6.61449000    3.08847500    1.83068000
 C                 -5.77137800    2.38258700    2.69288700
 C                 -4.92698800    1.39111100    2.19229000
 C                 -1.86130400   -0.89128400    0.53929300
 C                 -1.36423400   -0.40599300   -0.83392100
 C                 -0.74490700   -0.86338300    1.59491100
 H                 -5.74792700    1.60838500   -1.11836300
 H                 -7.26314200    3.36773400   -0.21453700
 H                 -7.27302000    3.86424100    2.22746200
 H                 -5.76783700    2.60626100    3.76154000
 H                 -4.26166000    0.84336500    2.86315500
 O                 -0.02960000    0.10616300    1.73634900
 O                 -0.64957800    0.56492700   -0.95746200
 O                 -1.86128600   -1.09286800   -1.82682900
 O                 -0.70913100   -1.93994200    2.32637100
 C                 -1.48903800   -0.69965300   -3.16187600
 C                  0.34286100   -2.01858400    3.30674200
 H                 -1.86154800   -1.48764400   -3.82416500
 H                 -0.39787500   -0.61642500   -3.23362400
 H                 -1.95765000    0.26417100   -3.40014200
 H                  0.25842500   -3.00924400    3.76281000
 H                  0.20359500   -1.23245800    4.06032300
 H                  1.31110000   -1.89123600    2.80343400
 O                  2.97985200   -0.91900300    1.36183800
 O                  1.99792300   -0.82884300   -1.96246800
 O                  0.78395000    3.03290500    0.46119400
 S                  1.33282500    3.66257600   -0.76323000
 S                  3.84321300    0.10111200    2.01170600
 S                  1.42748700   -2.10229500   -1.46629500
 O                  1.91761400    2.60841300   -1.63317600
 O                  2.11197300    4.87080900   -0.59082000
 O                  3.29623700    1.45119600    1.72409500
 O                  4.27970300   -0.16778300    3.36338100
 O                  0.71248400   -1.86428800   -0.18353100
 O                  0.70765800   -2.91323700   -2.43290000
 C                  2.90568500   -3.12893100   -0.98137100
 C                  5.34676700    0.05286800    0.95830800
 C                 -0.15076100    4.22061100   -1.69191000
 F                  2.67019300   -3.72958200    0.17087700
 F                  3.98408600   -2.37664000   -0.88216600
 F                  3.10691200   -4.04585500   -1.91380500
 F                  4.98939900    0.31354000   -0.29736600
 F                  5.90752100   -1.14347100    1.00755800
 F                  6.22175400    0.96174800    1.35340400
 F                 -0.94665500    3.20253300   -1.97770200
 F                  0.22905300    4.79838900   -2.82212700
 F                 -0.82228900    5.09971300   -0.96273000
 C                 -4.04629400    0.03512700    0.25546200
 H                 -3.83246400    0.23366000   -0.80968000
 C                 -4.74246500   -1.39439600    0.28008200
 C                 -5.96595700   -1.36626200   -0.53412700
 C                 -5.06406200   -1.75653900    1.67536100
 C                 -1.65938400   -3.52332200   -0.14993600
 C                 -3.21676700   -3.76106000   -1.95340300
 C                 -1.99467400   -4.12460400   -1.32956000
 H                 -0.74187500   -3.76110800    0.38849800
 H                 -3.52342200   -4.18936500   -2.90960400
 H                 -1.34953900   -4.87087600   -1.79228400
 N                 -6.95274900   -1.26911200   -1.13781000
 N                 -5.29129100   -2.02308900    2.77731200
 N                 -3.78440500   -2.36971400   -0.26920200
 N                 -4.07597100   -2.90829100   -1.41614900
 C                 -2.54618500   -2.51888600    0.43890600
 H                 -2.73279300   -2.68909300    1.51378600
 Yb                 1.65478300    0.73215100   -0.01169900
 O                 -2.87247000   -0.08418400    1.02448600

7 66 S 7 +0.1

H     0
S    3   1.00
     13.0107010              0.19682158D-01
      1.9622572              0.13796524
      0.44453796             0.47831935
S    1   1.00
      0.12194962             1.0000000
P    1   1.00
      0.8000000              1.0000000
****
C     0
S    5   1.00
   1238.4016938              0.54568832082D-02
    186.29004992             0.40638409211D-01
     42.251176346            0.18025593888
     11.676557932            0.46315121755
      3.5930506482           0.44087173314
S    1   1.00
      0.40245147363          1.0000000
S    1   1.00
      0.13090182668          1.0000000
P    3   1.00
      9.4680970621           0.38387871728D-01
      2.0103545142           0.21117025112
      0.54771004707          0.51328172114
P    1   1.00
      0.15268613795          1.0000000
D    1   1.00
      0.8000000              1.0000000
****
N     0
S    5   1.00
   1712.8415853             -0.53934125305D-02
    257.64812677            -0.40221581118D-01
     58.458245853           -0.17931144990
     16.198367905           -0.46376317823
      5.0052600809          -0.44171422662
S    1   1.00
      0.58731856571          1.0000000
S    1   1.00
      0.18764592253          1.0000000
P    3   1.00
     13.571470233           -0.40072398852D-01
      2.9257372874          -0.21807045028
      0.79927750754         -0.51294466049
P    1   1.00
      0.21954348034          1.0000000
D    1   1.00
      1.0000000              1.0000000
****
O     0
S    5   1.00
   2266.1767785             -0.53431809926D-02
    340.87010191            -0.39890039230D-01
     77.363135167           -0.17853911985
     21.479644940           -0.46427684959
      6.6589433124          -0.44309745172
S    1   1.00
      0.80975975668          1.0000000
S    1   1.00
      0.25530772234          1.0000000
P    3   1.00
     17.721504317            0.43394573193D-01
      3.8635505440           0.23094120765
      1.0480920883           0.51375311064
P    1   1.00
      0.27641544411          1.0000000
D    1   1.00
      1.2000000              1.0000000
****
F     0
S    5   1.00
   2894.8325990             -0.53408255515D-02
    435.41939120            -0.39904258866D-01
     98.843328866           -0.17912768038
     27.485198001           -0.46758090825
      8.5405498171          -0.44653131020
S    1   1.00
      1.0654578038           1.0000000
S    1   1.00
      0.33247346748          1.0000000
P    3   1.00
     22.696633924           -0.45212874436D-01
      4.9872339257          -0.23754317067
      1.3491613954          -0.51287353587
P    1   1.00
      0.34829881977          1.0000000
D    1   1.00
      1.4000000              1.0000000
****
S     0
S    5   1.00
   9184.9303010             -0.22294387756D-02
   1381.5105503             -0.16683029937D-01
    313.87147580            -0.75262436116D-01
     88.053870623           -0.19376827038
     27.039914905           -0.17718020803
S    3   1.00
     45.648731303           -0.10736062573
      4.9664522326           0.65066293018
      2.0116242047           0.59712155354
S    1   1.00
      0.35661077013          1.0000000
S    1   1.00
      0.13507221477          1.0000000
P    5   1.00
    261.98233439            -0.92729929822D-02
     61.306894736           -0.66547669241D-01
     19.103729887           -0.24828595903
      6.6567720378          -0.48703847402
      2.3959635161          -0.39337850312
P    1   1.00
      0.61776161679          1.0000000
P    1   1.00
      0.16993376871          1.0000000
D    1   1.00
      0.5500000              1.0000000
****
Yb     0
S    5   1.00
  91972.903000               0.51000000000D-04
  13787.371000               0.38600000000D-03
   3123.6135000              0.18440000000D-02
    871.47540000             0.53560000000D-02
    250.46300000             0.88590000000D-02
S    1   1.00
     58.282700000            1.0000000
S    1   1.00
     41.630500000            1.0000000
S    1   1.00
     20.216400000            1.0000000
S    1   1.00
      4.9972000000           1.0000000
S    1   1.00
      2.4822000000           1.0000000
S    1   1.00
      0.91790000000          1.0000000
S    1   1.00
      0.38530000000          1.0000000
S    1   1.00
      0.61400000000D-01      1.0000000
S    1   1.00
      0.25000000000D-01      1.0000000
P    3   1.00
     12.274108000           -0.15252141000
     10.695631000           -0.20243492000
      2.0359782000          -0.19621046000
P    6   1.00
   1497.5567000             -0.10182934000D-02
    375.04101000            -0.60919401000D-02
    128.69727000            -0.17077693000D-01
     45.270759000           -0.35655508000D-01
     14.906971000            0.23732226000
      5.6450858000          -0.30559689000
P    1   1.00
      3.6752106000           1.0000000
P    1   1.00
      1.3296961000           1.0000000
P    1   1.00
      0.55338966000          1.0000000
P    1   1.00
      0.22382350000          1.0000000
P    1   1.00
      0.68350467650D-01      1.0000000
P    1   1.00
      0.25355670803D-01      1.0000000
D    6   1.00
    469.76060000             0.19840000000D-02
    142.61280000             0.16013000000D-01
     55.126700000            0.63153000000D-01
     23.441500000            0.13780000000
      9.4951000000           0.28549800000
      4.5792000000           0.43830900000
D    1   1.00
      2.1646000000           1.0000000
D    1   1.00
      0.92380000000          1.0000000
D    1   1.00
      0.31070000000          1.0000000
D    1   1.00
      0.91400000000D-01      1.0000000
F    5   1.00
    142.02930000             0.59570000000D-02
     51.086200000            0.53180000000D-01
     22.874100000            0.17807600000
     10.502500000            0.30060000000
      4.7872000000           0.35034200000
F    1   1.00
      2.1088000000           1.0000000
F    1   1.00
      0.86090000000          1.0000000
F    1   1.00
      0.30600000000          1.0000000
G    1   1.00
      0.51330000000          1.0000000
****

Yb     0
Yb-ECP     5     28
h potential
  1
2      1.00000000             0.00000000
s-h potential
  1
2     32.42448400           891.01377700
p-h potential
  1
2     18.65623200           264.03695300
d-h potential
  1
2     10.49022200            73.92391900
f-h potential
  1
2     20.77418300           -39.59217300
g-h potential
  1
2     28.43102800           -34.63863800




















