%chk=ts3.chk
%mem=616Gb
%nprocshared=24
#opt=(calcfc,modred) freq MN15/gen scf=(maxcyc=500) scrf=(smd,solvent=DiChloroEthane)  

ts opt for i3 Going from i2 to i3, where we are forming bond 7-66

0 1
C                 -5.6212480000      0.7099370000      0.1558360000
C                 -5.9666990000      1.3960870000      1.3296540000
C                 -7.1601430000      2.1182480000      1.4000980000
C                 -8.0200610000      2.1671760000      0.3010370000
C                 -7.6831530000      1.4887350000     -0.8726690000
C                 -6.4919750000      0.7658760000     -0.9423680000
C                 -1.7483670000     -0.0093970000      0.5482820000
C                 -1.1525140000     -0.2240290000     -0.7591500000
C                 -0.8136080000      0.2719120000      1.6222770000
H                 -5.3086970000      1.3742690000      2.2016250000
H                 -7.4156660000      2.6479670000      2.3204530000
H                 -8.9509970000      2.7357040000      0.3581550000
H                 -8.3478930000      1.5239560000     -1.7385710000
H                 -6.2267170000      0.2342260000     -1.8607620000
O                  0.4036190000     -0.0302840000      1.6044290000
O                  0.0642690000     -0.2577500000     -1.0244200000
O                 -2.0182090000     -0.4785710000     -1.7131210000
O                 -1.3351740000      0.7632000000      2.7182000000
C                 -1.5077460000     -0.8173310000     -3.0075170000
C                 -0.4555260000      1.0070600000      3.8242190000
H                 -2.3761860000     -1.0870340000     -3.6168510000
H                 -0.8096560000     -1.6624430000     -2.9274790000
H                 -0.9847210000      0.0437230000     -3.4438110000
H                 -1.0682430000      1.4729590000      4.6019110000
H                  0.3553620000      1.6805640000      3.5158440000
H                 -0.0307600000      0.0612790000      4.1851680000
O                  3.4300260000     -0.4076130000      1.4458410000
O                  2.8788960000     -0.7660970000     -1.5181860000
O                  0.4204530000      2.2534870000      0.1499620000
S                  1.1568370000      2.8587910000     -0.9899870000
S                  3.8691310000      0.9484360000      1.9059650000
S                  2.6084310000     -2.1819030000     -1.1014590000
O                  2.1311090000      1.8069610000     -1.4348740000
O                  1.6543740000      4.2041140000     -0.8606210000
O                  2.8520720000      1.8679170000      1.3124750000
O                  4.2305630000      1.1178300000      3.2867720000
O                  1.8254310000     -2.0677410000      0.1558910000
O                  2.1240550000     -3.0923970000     -2.1118080000
C                  4.2772850000     -2.8299300000     -0.5970580000
C                  5.3723740000      1.2568070000      0.8897620000
C                 -0.0907600000      2.9219060000     -2.3771440000
F                  4.1335730000     -3.5949610000      0.4685300000
F                  5.0972240000     -1.8354290000     -0.3236300000
F                  4.7724190000     -3.5427060000     -1.5912360000
F                  5.0395830000      1.1293970000     -0.3840040000
F                  6.3012280000      0.3741020000      1.1992500000
F                  5.8190230000      2.4760710000      1.1141870000
F                 -0.3912290000      4.1784990000     -2.6308700000
F                 -1.1927780000      2.2764550000     -2.0199630000
F                  0.4088760000      2.3564040000     -3.4591680000
C                 -4.3464190000     -0.1030050000      0.0316250000
H                 -4.1780160000     -0.2994070000     -1.0363100000
C                 -4.5215090000     -1.5355270000      0.6360080000
C                 -5.6711850000     -2.2167510000      0.0082900000
C                 -4.7621840000     -1.4726900000      2.0940840000
C                 -0.9964150000     -2.7714980000      0.7747970000
C                 -2.2119230000     -3.6035100000     -1.1292480000
C                 -1.0018630000     -3.5255770000     -0.3546050000
H                 -0.1188440000     -2.6805290000      1.4137480000
H                 -2.2603690000     -4.1885390000     -2.0501680000
H                 -0.1165830000     -4.0785850000     -0.6726750000
N                 -6.6149230000     -2.6906160000     -0.4626530000
N                 -4.9364200000     -1.3821620000      3.2424880000
N                 -3.2927720000     -2.3069830000      0.3739630000
N                 -3.3080850000     -3.0087670000     -0.7692510000
C                 -2.1668560000     -1.9914380000      1.0881300000
H                 -2.3506020000     -1.6815460000      2.1221420000
Sc                 1.7900570000      0.2734020000      0.0855620000
C                 -3.1327870000      0.6276240000      0.6361160000
H                 -3.1002050000      1.6210470000      0.1592910000
H                 -3.3308560000      0.8063970000      1.7024570000

7 66  f
66 7 f

H     0
S    3   1.00
     13.0107010              0.19682158D-01
      1.9622572              0.13796524
      0.44453796             0.47831935
S    1   1.00
      0.12194962             1.0000000
P    1   1.00
      0.8000000              1.0000000
****
C     0
S    5   1.00
   1238.4016938              0.54568832082D-02
    186.29004992             0.40638409211D-01
     42.251176346            0.18025593888
     11.676557932            0.46315121755
      3.5930506482           0.44087173314
S    1   1.00
      0.40245147363          1.0000000
S    1   1.00
      0.13090182668          1.0000000
P    3   1.00
      9.4680970621           0.38387871728D-01
      2.0103545142           0.21117025112
      0.54771004707          0.51328172114
P    1   1.00
      0.15268613795          1.0000000
D    1   1.00
      0.8000000              1.0000000
****
N     0
S    5   1.00
   1712.8415853             -0.53934125305D-02
    257.64812677            -0.40221581118D-01
     58.458245853           -0.17931144990
     16.198367905           -0.46376317823
      5.0052600809          -0.44171422662
S    1   1.00
      0.58731856571          1.0000000
S    1   1.00
      0.18764592253          1.0000000
P    3   1.00
     13.571470233           -0.40072398852D-01
      2.9257372874          -0.21807045028
      0.79927750754         -0.51294466049
P    1   1.00
      0.21954348034          1.0000000
D    1   1.00
      1.0000000              1.0000000
****
O     0
S    5   1.00
   2266.1767785             -0.53431809926D-02
    340.87010191            -0.39890039230D-01
     77.363135167           -0.17853911985
     21.479644940           -0.46427684959
      6.6589433124          -0.44309745172
S    1   1.00
      0.80975975668          1.0000000
S    1   1.00
      0.25530772234          1.0000000
P    3   1.00
     17.721504317            0.43394573193D-01
      3.8635505440           0.23094120765
      1.0480920883           0.51375311064
P    1   1.00
      0.27641544411          1.0000000
D    1   1.00
      1.2000000              1.0000000
****
F     0
S    5   1.00
   2894.8325990             -0.53408255515D-02
    435.41939120            -0.39904258866D-01
     98.843328866           -0.17912768038
     27.485198001           -0.46758090825
      8.5405498171          -0.44653131020
S    1   1.00
      1.0654578038           1.0000000
S    1   1.00
      0.33247346748          1.0000000
P    3   1.00
     22.696633924           -0.45212874436D-01
      4.9872339257          -0.23754317067
      1.3491613954          -0.51287353587
P    1   1.00
      0.34829881977          1.0000000
D    1   1.00
      1.4000000              1.0000000
****
S     0
S    5   1.00
   9184.9303010             -0.22294387756D-02
   1381.5105503             -0.16683029937D-01
    313.87147580            -0.75262436116D-01
     88.053870623           -0.19376827038
     27.039914905           -0.17718020803
S    3   1.00
     45.648731303           -0.10736062573
      4.9664522326           0.65066293018
      2.0116242047           0.59712155354
S    1   1.00
      0.35661077013          1.0000000
S    1   1.00
      0.13507221477          1.0000000
P    5   1.00
    261.98233439            -0.92729929822D-02
     61.306894736           -0.66547669241D-01
     19.103729887           -0.24828595903
      6.6567720378          -0.48703847402
      2.3959635161          -0.39337850312
P    1   1.00
      0.61776161679          1.0000000
P    1   1.00
      0.16993376871          1.0000000
D    1   1.00
      0.5500000              1.0000000
****
Sc     0
S    8   1.00
 191612.9187400              0.23076475942D-03
  28723.8503630              0.17890329946D-02
   6537.0116490              0.92990401140D-02
   1850.3097171              0.37739438011D-01
    602.38855156             0.12227148359
    216.17324766             0.28814821470
     83.712517880            0.40517543099
     32.908707189            0.20566019623
S    4   1.00
    211.34393234            -0.24527991462D-01
     65.128920139           -0.11570158142
     10.034311535            0.55995283317
      4.1596884597           0.56087765073
S    2   1.00
      6.0009041613          -0.22840494325
      0.98255784150          0.71948970378
S    1   1.00
      0.42483192773          1.0000000
S    1   1.00
      0.77185462096D-01      1.0000000
S    1   1.00
      0.30147219702D-01      1.0000000
P    6   1.00
    947.34122823             0.24737208744D-02
    224.09699732             0.19742967060D-01
     71.560334882            0.90357147549D-01
     26.444824490            0.25201602503
     10.393798285            0.39675535929
      4.1606304559           0.23208624517
P    3   1.00
     15.565737135           -0.27129423974D-01
      2.1121544865           0.55109256629
      0.84184709021          1.0090635806
P    1   1.00
      0.32297542652          1.0000000
P    1   1.00
      0.0897480              1.0000000
D    4   1.00
     30.989390993            0.11902837431D-01
      8.6905465069           0.67655856850D-01
      2.9520256337           0.21332539722
      1.0761910745           0.38391075578
D    1   1.00
      0.38338915095           .43354716259
D    1   1.00
      0.12534686113           .24509263822
D    1   1.00
      0.0410000              1.0000000
F    1   1.00
      0.3450000              1.0000000
****

--link1--
%chk=ts3.chk
%mem=616Gb
%nprocshared=24
#opt=(ts,noeigentest,readfc,modred) freq  MN15/gen scf=(maxcyc=500) scrf=(smd,solvent=DiChloroEthane) geom=check guess=read  

ts3 opt

0 1

7 66 a
66 7 a

H     0
S    3   1.00
     13.0107010              0.19682158D-01
      1.9622572              0.13796524
      0.44453796             0.47831935
S    1   1.00
      0.12194962             1.0000000
P    1   1.00
      0.8000000              1.0000000
****
C     0
S    5   1.00
   1238.4016938              0.54568832082D-02
    186.29004992             0.40638409211D-01
     42.251176346            0.18025593888
     11.676557932            0.46315121755
      3.5930506482           0.44087173314
S    1   1.00
      0.40245147363          1.0000000
S    1   1.00
      0.13090182668          1.0000000
P    3   1.00
      9.4680970621           0.38387871728D-01
      2.0103545142           0.21117025112
      0.54771004707          0.51328172114
P    1   1.00
      0.15268613795          1.0000000
D    1   1.00
      0.8000000              1.0000000
****
N     0
S    5   1.00
   1712.8415853             -0.53934125305D-02
    257.64812677            -0.40221581118D-01
     58.458245853           -0.17931144990
     16.198367905           -0.46376317823
      5.0052600809          -0.44171422662
S    1   1.00
      0.58731856571          1.0000000
S    1   1.00
      0.18764592253          1.0000000
P    3   1.00
     13.571470233           -0.40072398852D-01
      2.9257372874          -0.21807045028
      0.79927750754         -0.51294466049
P    1   1.00
      0.21954348034          1.0000000
D    1   1.00
      1.0000000              1.0000000
****
O     0
S    5   1.00
   2266.1767785             -0.53431809926D-02
    340.87010191            -0.39890039230D-01
     77.363135167           -0.17853911985
     21.479644940           -0.46427684959
      6.6589433124          -0.44309745172
S    1   1.00
      0.80975975668          1.0000000
S    1   1.00
      0.25530772234          1.0000000
P    3   1.00
     17.721504317            0.43394573193D-01
      3.8635505440           0.23094120765
      1.0480920883           0.51375311064
P    1   1.00
      0.27641544411          1.0000000
D    1   1.00
      1.2000000              1.0000000
****
F     0
S    5   1.00
   2894.8325990             -0.53408255515D-02
    435.41939120            -0.39904258866D-01
     98.843328866           -0.17912768038
     27.485198001           -0.46758090825
      8.5405498171          -0.44653131020
S    1   1.00
      1.0654578038           1.0000000
S    1   1.00
      0.33247346748          1.0000000
P    3   1.00
     22.696633924           -0.45212874436D-01
      4.9872339257          -0.23754317067
      1.3491613954          -0.51287353587
P    1   1.00
      0.34829881977          1.0000000
D    1   1.00
      1.4000000              1.0000000
****
S     0
S    5   1.00
   9184.9303010             -0.22294387756D-02
   1381.5105503             -0.16683029937D-01
    313.87147580            -0.75262436116D-01
     88.053870623           -0.19376827038
     27.039914905           -0.17718020803
S    3   1.00
     45.648731303           -0.10736062573
      4.9664522326           0.65066293018
      2.0116242047           0.59712155354
S    1   1.00
      0.35661077013          1.0000000
S    1   1.00
      0.13507221477          1.0000000
P    5   1.00
    261.98233439            -0.92729929822D-02
     61.306894736           -0.66547669241D-01
     19.103729887           -0.24828595903
      6.6567720378          -0.48703847402
      2.3959635161          -0.39337850312
P    1   1.00
      0.61776161679          1.0000000
P    1   1.00
      0.16993376871          1.0000000
D    1   1.00
      0.5500000              1.0000000
****
Sc     0
S    8   1.00
 191612.9187400              0.23076475942D-03
  28723.8503630              0.17890329946D-02
   6537.0116490              0.92990401140D-02
   1850.3097171              0.37739438011D-01
    602.38855156             0.12227148359
    216.17324766             0.28814821470
     83.712517880            0.40517543099
     32.908707189            0.20566019623
S    4   1.00
    211.34393234            -0.24527991462D-01
     65.128920139           -0.11570158142
     10.034311535            0.55995283317
      4.1596884597           0.56087765073
S    2   1.00
      6.0009041613          -0.22840494325
      0.98255784150          0.71948970378
S    1   1.00
      0.42483192773          1.0000000
S    1   1.00
      0.77185462096D-01      1.0000000
S    1   1.00
      0.30147219702D-01      1.0000000
P    6   1.00
    947.34122823             0.24737208744D-02
    224.09699732             0.19742967060D-01
     71.560334882            0.90357147549D-01
     26.444824490            0.25201602503
     10.393798285            0.39675535929
      4.1606304559           0.23208624517
P    3   1.00
     15.565737135           -0.27129423974D-01
      2.1121544865           0.55109256629
      0.84184709021          1.0090635806
P    1   1.00
      0.32297542652          1.0000000
P    1   1.00
      0.0897480              1.0000000
D    4   1.00
     30.989390993            0.11902837431D-01
      8.6905465069           0.67655856850D-01
      2.9520256337           0.21332539722
      1.0761910745           0.38391075578
D    1   1.00
      0.38338915095           .43354716259
D    1   1.00
      0.12534686113           .24509263822
D    1   1.00
      0.0410000              1.0000000
F    1   1.00
      0.3450000              1.0000000
****







































































