%chk=mixed.chk
%mem=616Gb
%nprocshared=24
#P  MN15/gen scf=(maxcyc=500) opt scrf=(smd,solvent=DiChloroEthane)  

Opt

0 1
  C    4.3840039   -0.8381481    0.9029990
  C    5.1349049   -0.1706501    1.9214650
  C    6.1178139    0.7012059    1.5617530
  C    6.3773669    0.9230399    0.1893690
  C    5.6571919    0.2376779   -0.8270380
  C    4.6845069   -0.6481131   -0.4751120
  C    3.3231029   -1.7932521    1.2419730
  C    1.9597499   -1.4102381    1.7460800
  C    2.9442729   -1.9456371    2.5794900
  C    0.8528079   -2.3366191    1.3005220
  C    1.5551529    0.0257179    1.9930990
  H    4.9036119   -0.3763621    2.9567600
  H    6.7019629    1.2218979    2.3070430
  H    7.1522699    1.6222529   -0.0970290
  H    5.8955219    0.4223639   -1.8651990
  H    4.1315859   -1.2162911   -1.2121000
  H    3.3265079   -2.7015691    0.6382860
  O    0.4231919    0.4347779    1.8507460
  O   -0.0721611   -1.9706081    0.6082150
 Sc   -1.0461041    0.2375329   -0.1710200
  O    1.0464629   -3.5655971    1.6978450
  O    2.5564379    0.7606179    2.3956880
  C    0.0669849   -4.5313241    1.2628650
  C    2.2839139    2.1622809    2.6116380
  H    0.3876039   -5.4815661    1.6757710
  H    0.0493559   -4.5669071    0.1750650
  H   -0.9146991   -4.2554401    1.6444100
  H    3.2294909    2.5998749    2.9159340
  H    1.5362929    2.2733769    3.3935420
  H    1.9257269    2.6049739    1.6845600
  O   -0.1142461    2.6785839   -0.1095520
  O   -0.1338861   -1.0126921   -2.2472500
  O   -2.7661031   -0.9496801    1.3243590
  S   -3.7757271   -1.1457361    0.2996740
  S   -1.0871981    3.1976839    0.8418190
  S    1.2858229   -0.8788371   -1.9957820
  O   -3.3221411   -0.5826201   -0.9635780
  O   -5.1294821   -0.8887401    0.6699130
  O   -2.0571501    2.1757659    1.1965590
  O   -0.5718201    3.9915259    1.9125610
  O    1.5444579    0.0313799   -0.8911530
  O    2.0537659   -2.0886621   -1.9884530
  C    1.8982449    0.0403079   -3.4540250
  C   -2.0571281    4.3770949   -0.1645510
  C   -3.7327821   -2.9486461   -0.0196650
  F    3.1989689    0.2911749   -3.3189430
  F    1.2570519    1.1950579   -3.5761890
  F    1.7185489   -0.6676451   -4.5611030
  F   -2.6034591    3.7570569   -1.2064780
  F   -1.2737211    5.3509219   -0.6176230
  F   -3.0290431    4.9198849    0.5600890
  F   -2.5652031   -3.3096571   -0.5392530
  F   -4.6936931   -3.2874661   -0.8724510
  F   -3.9164881   -3.6249521    1.1106060
  H    2.6396303   -2.8188622    3.1563530
  H    3.4782580   -1.3638328    3.3207299

H     0
S    3   1.00
     13.0107010              0.19682158D-01
      1.9622572              0.13796524
      0.44453796             0.47831935
S    1   1.00
      0.12194962             1.0000000
P    1   1.00
      0.8000000              1.0000000
****
C     0
S    5   1.00
   1238.4016938              0.54568832082D-02
    186.29004992             0.40638409211D-01
     42.251176346            0.18025593888
     11.676557932            0.46315121755
      3.5930506482           0.44087173314
S    1   1.00
      0.40245147363          1.0000000
S    1   1.00
      0.13090182668          1.0000000
P    3   1.00
      9.4680970621           0.38387871728D-01
      2.0103545142           0.21117025112
      0.54771004707          0.51328172114
P    1   1.00
      0.15268613795          1.0000000
D    1   1.00
      0.8000000              1.0000000
****
O     0
S    5   1.00
   2266.1767785             -0.53431809926D-02
    340.87010191            -0.39890039230D-01
     77.363135167           -0.17853911985
     21.479644940           -0.46427684959
      6.6589433124          -0.44309745172
S    1   1.00
      0.80975975668          1.0000000
S    1   1.00
      0.25530772234          1.0000000
P    3   1.00
     17.721504317            0.43394573193D-01
      3.8635505440           0.23094120765
      1.0480920883           0.51375311064
P    1   1.00
      0.27641544411          1.0000000
D    1   1.00
      1.2000000              1.0000000
****
F     0
S    5   1.00
   2894.8325990             -0.53408255515D-02
    435.41939120            -0.39904258866D-01
     98.843328866           -0.17912768038
     27.485198001           -0.46758090825
      8.5405498171          -0.44653131020
S    1   1.00
      1.0654578038           1.0000000
S    1   1.00
      0.33247346748          1.0000000
P    3   1.00
     22.696633924           -0.45212874436D-01
      4.9872339257          -0.23754317067
      1.3491613954          -0.51287353587
P    1   1.00
      0.34829881977          1.0000000
D    1   1.00
      1.4000000              1.0000000
****
S     0
S    5   1.00
   9184.9303010             -0.22294387756D-02
   1381.5105503             -0.16683029937D-01
    313.87147580            -0.75262436116D-01
     88.053870623           -0.19376827038
     27.039914905           -0.17718020803
S    3   1.00
     45.648731303           -0.10736062573
      4.9664522326           0.65066293018
      2.0116242047           0.59712155354
S    1   1.00
      0.35661077013          1.0000000
S    1   1.00
      0.13507221477          1.0000000
P    5   1.00
    261.98233439            -0.92729929822D-02
     61.306894736           -0.66547669241D-01
     19.103729887           -0.24828595903
      6.6567720378          -0.48703847402
      2.3959635161          -0.39337850312
P    1   1.00
      0.61776161679          1.0000000
P    1   1.00
      0.16993376871          1.0000000
D    1   1.00
      0.5500000              1.0000000
****
Sc     0
S    8   1.00
 191612.9187400              0.23076475942D-03
  28723.8503630              0.17890329946D-02
   6537.0116490              0.92990401140D-02
   1850.3097171              0.37739438011D-01
    602.38855156             0.12227148359
    216.17324766             0.28814821470
     83.712517880            0.40517543099
     32.908707189            0.20566019623
S    4   1.00
    211.34393234            -0.24527991462D-01
     65.128920139           -0.11570158142
     10.034311535            0.55995283317
      4.1596884597           0.56087765073
S    2   1.00
      6.0009041613          -0.22840494325
      0.98255784150          0.71948970378
S    1   1.00
      0.42483192773          1.0000000
S    1   1.00
      0.77185462096D-01      1.0000000
S    1   1.00
      0.30147219702D-01      1.0000000
P    6   1.00
    947.34122823             0.24737208744D-02
    224.09699732             0.19742967060D-01
     71.560334882            0.90357147549D-01
     26.444824490            0.25201602503
     10.393798285            0.39675535929
      4.1606304559           0.23208624517
P    3   1.00
     15.565737135           -0.27129423974D-01
      2.1121544865           0.55109256629
      0.84184709021          1.0090635806
P    1   1.00
      0.32297542652          1.0000000
P    1   1.00
      0.0897480              1.0000000
D    4   1.00
     30.989390993            0.11902837431D-01
      8.6905465069           0.67655856850D-01
      2.9520256337           0.21332539722
      1.0761910745           0.38391075578
D    1   1.00
      0.38338915095           .43354716259
D    1   1.00
      0.12534686113           .24509263822
D    1   1.00
      0.0410000              1.0000000
F    1   1.00
      0.3450000              1.0000000
****


























































