%chk=scan-CC
%mem=616GB
%nprocshared=24
#opt=(modred) freq MN15/gen scrf=(smd,solvent=DiChloroEthane)

Scan

0 1
C                  5.5247650000     -0.7685150000      0.0949160000
C                  5.8022580000     -1.6024690000      1.1881770000
C                  6.9537050000     -2.3930960000      1.1998440000
C                  7.8402880000     -2.3624790000      0.1216580000
C                  7.5718370000     -1.5358410000     -0.9721690000
C                  6.4221380000     -0.7459960000     -0.9832390000
C                  1.7653150000      0.3210680000      0.6449490000
C                  1.1461640000      0.5065060000     -0.7298950000
C                  0.7400380000     -0.2525860000      1.6039640000
H                  5.1235840000     -1.6429210000      2.0435060000
H                  7.1560180000     -3.0379530000      2.0578500000
H                  8.7385440000     -2.9839270000      0.1324080000
H                  8.2578320000     -1.5076050000     -1.8216330000
H                  6.2094640000     -0.0998150000     -1.8398370000
O                 -0.4470770000      0.1060340000      1.6012040000
O                 -0.0312280000      0.3075590000     -1.0357240000
O                  1.9923940000      0.9580700000     -1.6016030000
O                  1.1920110000     -1.0795460000      2.4847080000
C                  1.4931820000      1.3395220000     -2.8960610000
C                  0.2448190000     -1.6662040000      3.3992690000
H                  2.3318830000      1.8125460000     -3.4151340000
H                  0.6582720000      2.0431670000     -2.7703990000
H                  1.1509440000      0.4478420000     -3.4361440000
H                  0.8096160000     -2.3905050000      3.9927580000
H                 -0.5497070000     -2.1597190000      2.8232830000
H                 -0.1820410000     -0.8837140000      4.0394010000
O                 -3.4913600000      0.3457770000      1.3588910000
O                 -2.9390730000      0.7305800000     -1.5416200000
O                 -0.2890130000     -2.1422150000      0.0907430000
S                 -0.9543470000     -2.7564260000     -1.0905970000
S                 -3.8459610000     -1.0290810000      1.8423530000
S                 -2.7256750000      2.1533770000     -1.1006880000
O                 -2.0496130000     -1.7994740000     -1.4668030000
O                 -1.2863320000     -4.1553500000     -1.0418560000
O                 -2.7560290000     -1.8834850000      1.2738600000
O                 -4.2064970000     -1.1978260000      3.2219310000
O                 -1.8518690000      2.0332790000      0.0989720000
O                 -2.3574760000      3.1103240000     -2.1127260000
C                 -4.3979370000      2.6879920000     -0.4555190000
C                 -5.3086100000     -1.4564270000      0.8083600000
C                  0.2724960000     -2.5668330000     -2.4929800000
F                 -4.2658020000      3.1424330000      0.7728900000
F                 -5.2339010000      1.6690960000     -0.4705050000
F                 -4.8587350000      3.6454820000     -1.2359400000
F                 -4.9661750000     -1.3045040000     -0.4598440000
F                 -6.3046940000     -0.6468970000      1.1032910000
F                 -5.6590600000     -2.7058380000      1.0309990000
F                  1.4128420000     -2.0786650000     -2.0239500000
F                 -0.2074570000     -1.7402550000     -3.4005880000
F                  0.4934940000     -3.7448120000     -3.0335940000
C                  4.3047180000      0.1282350000      0.0425380000
H                  4.1393990000      0.4144120000     -1.0056310000
C                  4.5256580000      1.4989400000      0.7639100000
C                  5.6879620000      2.1977160000      0.1769390000
C                  4.8086120000      1.2830340000      2.2053720000
C                  0.9965350000      2.7563620000      1.0254490000
C                  2.3040070000      3.8557860000     -0.6907240000
C                  1.0740390000      3.7013600000      0.0730500000
H                  0.0988460000      2.6244240000      1.6304310000
H                  2.3768130000      4.5736690000     -1.5111270000
H                  0.2348590000      4.3716810000     -0.1214720000
N                  6.6470230000      2.6705340000     -0.2643440000
N                  4.9935620000      1.0772180000      3.3291010000
N                  3.3296170000      2.3217130000      0.6305640000
N                  3.3657290000      3.1838960000     -0.4118100000
C                  2.1199080000      1.7811590000      1.2180270000
H                  2.3121390000      1.6053850000      2.2927600000
Sc                -1.8148050000     -0.2577640000      0.0344340000
C                  3.0526340000     -0.5333140000      0.6251860000
H                  2.8607760000     -1.4797730000      0.0987940000
H                  3.2553750000     -0.7912720000      1.6746420000

7 66 S 10 +0.1

H     0
S    3   1.00
     13.0107010              0.19682158D-01
      1.9622572              0.13796524
      0.44453796             0.47831935
S    1   1.00
      0.12194962             1.0000000
P    1   1.00
      0.8000000              1.0000000
****
C     0
S    5   1.00
   1238.4016938              0.54568832082D-02
    186.29004992             0.40638409211D-01
     42.251176346            0.18025593888
     11.676557932            0.46315121755
      3.5930506482           0.44087173314
S    1   1.00
      0.40245147363          1.0000000
S    1   1.00
      0.13090182668          1.0000000
P    3   1.00
      9.4680970621           0.38387871728D-01
      2.0103545142           0.21117025112
      0.54771004707          0.51328172114
P    1   1.00
      0.15268613795          1.0000000
D    1   1.00
      0.8000000              1.0000000
****
N     0
S    5   1.00
   1712.8415853             -0.53934125305D-02
    257.64812677            -0.40221581118D-01
     58.458245853           -0.17931144990
     16.198367905           -0.46376317823
      5.0052600809          -0.44171422662
S    1   1.00
      0.58731856571          1.0000000
S    1   1.00
      0.18764592253          1.0000000
P    3   1.00
     13.571470233           -0.40072398852D-01
      2.9257372874          -0.21807045028
      0.79927750754         -0.51294466049
P    1   1.00
      0.21954348034          1.0000000
D    1   1.00
      1.0000000              1.0000000
****
O     0
S    5   1.00
   2266.1767785             -0.53431809926D-02
    340.87010191            -0.39890039230D-01
     77.363135167           -0.17853911985
     21.479644940           -0.46427684959
      6.6589433124          -0.44309745172
S    1   1.00
      0.80975975668          1.0000000
S    1   1.00
      0.25530772234          1.0000000
P    3   1.00
     17.721504317            0.43394573193D-01
      3.8635505440           0.23094120765
      1.0480920883           0.51375311064
P    1   1.00
      0.27641544411          1.0000000
D    1   1.00
      1.2000000              1.0000000
****
F     0
S    5   1.00
   2894.8325990             -0.53408255515D-02
    435.41939120            -0.39904258866D-01
     98.843328866           -0.17912768038
     27.485198001           -0.46758090825
      8.5405498171          -0.44653131020
S    1   1.00
      1.0654578038           1.0000000
S    1   1.00
      0.33247346748          1.0000000
P    3   1.00
     22.696633924           -0.45212874436D-01
      4.9872339257          -0.23754317067
      1.3491613954          -0.51287353587
P    1   1.00
      0.34829881977          1.0000000
D    1   1.00
      1.4000000              1.0000000
****
S     0
S    5   1.00
   9184.9303010             -0.22294387756D-02
   1381.5105503             -0.16683029937D-01
    313.87147580            -0.75262436116D-01
     88.053870623           -0.19376827038
     27.039914905           -0.17718020803
S    3   1.00
     45.648731303           -0.10736062573
      4.9664522326           0.65066293018
      2.0116242047           0.59712155354
S    1   1.00
      0.35661077013          1.0000000
S    1   1.00
      0.13507221477          1.0000000
P    5   1.00
    261.98233439            -0.92729929822D-02
     61.306894736           -0.66547669241D-01
     19.103729887           -0.24828595903
      6.6567720378          -0.48703847402
      2.3959635161          -0.39337850312
P    1   1.00
      0.61776161679          1.0000000
P    1   1.00
      0.16993376871          1.0000000
D    1   1.00
      0.5500000              1.0000000
****
Sc     0
S    8   1.00
 191612.9187400              0.23076475942D-03
  28723.8503630              0.17890329946D-02
   6537.0116490              0.92990401140D-02
   1850.3097171              0.37739438011D-01
    602.38855156             0.12227148359
    216.17324766             0.28814821470
     83.712517880            0.40517543099
     32.908707189            0.20566019623
S    4   1.00
    211.34393234            -0.24527991462D-01
     65.128920139           -0.11570158142
     10.034311535            0.55995283317
      4.1596884597           0.56087765073
S    2   1.00
      6.0009041613          -0.22840494325
      0.98255784150          0.71948970378
S    1   1.00
      0.42483192773          1.0000000
S    1   1.00
      0.77185462096D-01      1.0000000
S    1   1.00
      0.30147219702D-01      1.0000000
P    6   1.00
    947.34122823             0.24737208744D-02
    224.09699732             0.19742967060D-01
     71.560334882            0.90357147549D-01
     26.444824490            0.25201602503
     10.393798285            0.39675535929
      4.1606304559           0.23208624517
P    3   1.00
     15.565737135           -0.27129423974D-01
      2.1121544865           0.55109256629
      0.84184709021          1.0090635806
P    1   1.00
      0.32297542652          1.0000000
P    1   1.00
      0.0897480              1.0000000
D    4   1.00
     30.989390993            0.11902837431D-01
      8.6905465069           0.67655856850D-01
      2.9520256337           0.21332539722
      1.0761910745           0.38391075578
D    1   1.00
      0.38338915095           .43354716259
D    1   1.00
      0.12534686113           .24509263822
D    1   1.00
      0.0410000              1.0000000
F    1   1.00
      0.3450000              1.0000000
****
















