%chk=i3-major.chk
%mem=616Gb
%nprocshared=24
#P  UMN15/genecp scf=(maxcyc=500) opt=tight freq scrf=(smd,solvent=DiChloroEthane)  

freq

0 1
 C                 -5.59092200    0.74532100    0.11494700
 C                 -6.70627700    0.72828300   -0.73170100
 C                 -7.72834400    1.66225600   -0.55841400
 C                 -7.63443100    2.62020300    0.45450600
 C                 -6.51807200    2.64276200    1.29454100
 C                 -5.49582700    1.70692500    1.12899600
 C                 -2.10795800   -0.47942200    0.44935000
 C                 -1.43022800   -0.62667900   -0.91803300
 C                 -1.18241800    0.20150400    1.44387900
 H                 -6.76883600   -0.01752400   -1.52928800
 H                 -8.59587300    1.64704100   -1.22156700
 H                 -8.43178200    3.35512600    0.58619900
 H                 -6.44069600    3.39488700    2.08268700
 H                 -4.61546200    1.72258400    1.77547900
 O                 -0.00734900   -0.16849400    1.56550200
 O                 -0.22350500   -0.54142200   -1.12541200
 O                 -2.27896000   -0.93713300   -1.84447500
 O                 -1.72840000    1.09233200    2.19007700
 C                 -1.76761000   -1.32832700   -3.13402400
 C                 -0.88806600    1.75249200    3.15918200
 H                 -2.63819200   -1.62645000   -3.72507800
 H                 -1.07325300   -2.17025700   -3.00368200
 H                 -1.24867600   -0.48311800   -3.60094100
 H                 -1.51446700    2.51564900    3.62861800
 H                 -0.03157000    2.20844400    2.64414800
 H                 -0.54118900    1.02121800    3.90040200
 O                  3.28736600   -0.37539400    1.52767100
 O                  2.81487500   -0.93127700   -1.54946600
 O                  0.07838100    2.06536800   -0.03329200
 S                  0.85349500    2.78007000   -1.09136000
 S                  3.62666200    1.02270800    1.95049100
 S                  2.62169000   -2.33028000   -1.03524600
 O                  1.87891400    1.79080400   -1.56287600
 O                  1.29783700    4.12081100   -0.81940900
 O                  2.54112400    1.86184500    1.34996300
 O                  3.99170000    1.25167200    3.31961500
 O                  1.72711100   -2.18465100    0.14939700
 O                  2.28997800   -3.34619200   -2.00041800
 C                  4.29028200   -2.79574200   -0.33424000
 C                  5.07840900    1.40784100    0.88729600
 C                 -0.31173800    2.92711500   -2.51215700
 F                  4.13127200   -3.26616500    0.88504400
 F                  5.07886900   -1.73987800   -0.30768700
 F                  4.82178600   -3.72371300   -1.10439100
 F                  4.70805200    1.20023900   -0.36995400
 F                  6.07959900    0.61082700    1.19425200
 F                  5.43351000    2.66478800    1.04513400
 F                 -0.95338200    1.78216900   -2.68951900
 F                  0.37144000    3.22228200   -3.59884300
 F                 -1.18143400    3.88209900   -2.25418600
 C                 -4.51932300   -0.29738600   -0.05566500
 H                 -4.47458100   -0.63831000   -1.10296200
 C                 -4.76170600   -1.59808200    0.77440400
 C                 -6.00373200   -2.26276500    0.33893600
 C                 -4.87413800   -1.25716600    2.21106000
 C                 -1.25472900   -2.90661400    0.76213100
 C                 -2.67252700   -3.87576500   -0.94673300
 C                 -1.40335300   -3.79939800   -0.23105200
 H                 -0.33134200   -2.82144500    1.33543800
 H                 -2.78740500   -4.51397000   -1.82619000
 H                 -0.59527600   -4.48200300   -0.50043200
 N                 -7.00957700   -2.72610000    0.00591600
 N                 -4.94361500   -0.95397100    3.32525800
 N                 -3.61471200   -2.47734800    0.56947400
 N                 -3.71530100   -3.22820100   -0.56005800
 C                 -2.36245200   -1.93756600    1.05431200
 H                 -2.46573300   -1.77643700    2.14104400
 Lu                 1.59882400    0.17043900    0.03463100
 O                 -3.28728800    0.25550400    0.36853400

H     0
S    3   1.00
     13.0107010              0.19682158D-01
      1.9622572              0.13796524
      0.44453796             0.47831935
S    1   1.00
      0.12194962             1.0000000
P    1   1.00
      0.8000000              1.0000000
****
C     0
S    5   1.00
   1238.4016938              0.54568832082D-02
    186.29004992             0.40638409211D-01
     42.251176346            0.18025593888
     11.676557932            0.46315121755
      3.5930506482           0.44087173314
S    1   1.00
      0.40245147363          1.0000000
S    1   1.00
      0.13090182668          1.0000000
P    3   1.00
      9.4680970621           0.38387871728D-01
      2.0103545142           0.21117025112
      0.54771004707          0.51328172114
P    1   1.00
      0.15268613795          1.0000000
D    1   1.00
      0.8000000              1.0000000
****
N     0
S    5   1.00
   1712.8415853             -0.53934125305D-02
    257.64812677            -0.40221581118D-01
     58.458245853           -0.17931144990
     16.198367905           -0.46376317823
      5.0052600809          -0.44171422662
S    1   1.00
      0.58731856571          1.0000000
S    1   1.00
      0.18764592253          1.0000000
P    3   1.00
     13.571470233           -0.40072398852D-01
      2.9257372874          -0.21807045028
      0.79927750754         -0.51294466049
P    1   1.00
      0.21954348034          1.0000000
D    1   1.00
      1.0000000              1.0000000
****
O     0
S    5   1.00
   2266.1767785             -0.53431809926D-02
    340.87010191            -0.39890039230D-01
     77.363135167           -0.17853911985
     21.479644940           -0.46427684959
      6.6589433124          -0.44309745172
S    1   1.00
      0.80975975668          1.0000000
S    1   1.00
      0.25530772234          1.0000000
P    3   1.00
     17.721504317            0.43394573193D-01
      3.8635505440           0.23094120765
      1.0480920883           0.51375311064
P    1   1.00
      0.27641544411          1.0000000
D    1   1.00
      1.2000000              1.0000000
****
F     0
S    5   1.00
   2894.8325990             -0.53408255515D-02
    435.41939120            -0.39904258866D-01
     98.843328866           -0.17912768038
     27.485198001           -0.46758090825
      8.5405498171          -0.44653131020
S    1   1.00
      1.0654578038           1.0000000
S    1   1.00
      0.33247346748          1.0000000
P    3   1.00
     22.696633924           -0.45212874436D-01
      4.9872339257          -0.23754317067
      1.3491613954          -0.51287353587
P    1   1.00
      0.34829881977          1.0000000
D    1   1.00
      1.4000000              1.0000000
****
S     0
S    5   1.00
   9184.9303010             -0.22294387756D-02
   1381.5105503             -0.16683029937D-01
    313.87147580            -0.75262436116D-01
     88.053870623           -0.19376827038
     27.039914905           -0.17718020803
S    3   1.00
     45.648731303           -0.10736062573
      4.9664522326           0.65066293018
      2.0116242047           0.59712155354
S    1   1.00
      0.35661077013          1.0000000
S    1   1.00
      0.13507221477          1.0000000
P    5   1.00
    261.98233439            -0.92729929822D-02
     61.306894736           -0.66547669241D-01
     19.103729887           -0.24828595903
      6.6567720378          -0.48703847402
      2.3959635161          -0.39337850312
P    1   1.00
      0.61776161679          1.0000000
P    1   1.00
      0.16993376871          1.0000000
D    1   1.00
      0.5500000              1.0000000
****
Lu     0
S    5   1.00
  95169.767000               0.22000000000D-04
  15488.403000               0.14500000000D-03
   3776.2335000              0.65100000000D-03
   1079.0501000              0.20380000000D-02
    268.95380000             0.51270000000D-02
S    1   1.00
     63.467900000            1.0000000
S    1   1.00
     45.133200000            1.0000000
S    1   1.00
     21.456800000            1.0000000
S    1   1.00
      5.3483000000           1.0000000
S    1   1.00
      2.6778000000           1.0000000
S    1   1.00
      1.0287000000           1.0000000
S    1   1.00
      0.44080000000          1.0000000
S    1   1.00
      0.79100000000D-01      1.0000000
S    1   1.00
      0.31300000000D-01      1.0000000
P    3   1.00
     12.333733920           -0.15313031066
     11.080331415           -0.20300664852
      2.0341747228          -0.19458361263
P    6   1.00
   1500.5317313             -0.10192569555D-02
    382.39748937            -0.59476212135D-02
    132.99969628            -0.16265160929D-01
     46.110032419           -0.35623845839D-01
     15.583529011            0.23709171074
      5.7856677022          -0.30670977844
P    1   1.00
      3.7823361008           1.0000000
P    1   1.00
      1.3682592248           1.0000000
P    1   1.00
      0.57288205601          1.0000000
P    1   1.00
      0.22793165135          1.0000000
P    1   1.00
      0.81403917986D-01      1.0000000
P    1   1.00
      0.29091071778D-01      1.0000000
D    6   1.00
    484.52750000             0.22860000000D-02
    146.66550000             0.18629000000D-01
     56.377900000            0.74088000000D-01
     23.671100000            0.16155400000
      9.4401000000           0.30809100000
      4.3712000000           0.44833400000
D    1   1.00
      1.9580000000           1.0000000
D    1   1.00
      0.72720000000          1.0000000
D    1   1.00
      0.24600000000          1.0000000
D    1   1.00
      0.74400000000D-01      1.0000000
F    5   1.00
    175.15590000             0.41020000000D-02
     62.890900000            0.39086000000D-01
     28.362400000            0.14704400000
     13.247800000            0.27109200000
      6.1440000000           0.34566500000
F    1   1.00
      2.7623000000           1.0000000
F    1   1.00
      1.1574000000           1.0000000
F    1   1.00
      0.42440000000          1.0000000
G    1   1.00
      0.70090000000          1.0000000
****

Lu     0
Lu-ECP     5     28
h potential
  1
2      1.00000000             0.00000000
s-h potential
  1
2     35.16209700           989.99558400
p-h potential
  1
2     19.46440200           278.86565200
d-h potential
  1
2     10.00686500            71.00917800
f-h potential
  1
2     23.51793200           -47.40589000
g-h potential
  1
2     29.41223800           -35.55714600


