%chk=i3-major.chk
%mem=616Gb
%nprocshared=24
#P  UMN15/genecp scf=(maxcyc=500) freq scrf=(smd,solvent=DiChloroEthane)  

Freq

0 2
 C                 -4.82322500    1.19702400    0.81114400
 C                 -5.63647300    1.93375200   -0.05878300
 C                 -6.44318400    2.95455400    0.44356900
 C                 -6.43039000    3.24510900    1.81017900
 C                 -5.61153500    2.51531600    2.67573600
 C                 -4.80793100    1.48759900    2.18108100
 C                 -1.88194900   -1.01603400    0.55638900
 C                 -1.37224800   -0.53686800   -0.82310100
 C                 -0.74464600   -0.95091400    1.59841000
 H                 -5.63155000    1.70876900   -1.12892700
 H                 -7.07536200    3.53037200   -0.23526200
 H                 -7.05718800    4.04921300    2.20194000
 H                 -5.59540100    2.74810500    3.74235100
 H                 -4.16245400    0.91899900    2.85382000
 O                 -0.06059200    0.04028200    1.73453300
 O                 -0.68117300    0.44826100   -0.96004800
 O                 -1.84299300   -1.25445500   -1.80975700
 O                 -0.66648300   -2.02735900    2.32789500
 C                 -1.47603400   -0.86882600   -3.14877100
 C                  0.40844200   -2.08168500    3.28461300
 H                 -1.83060000   -1.67128700   -3.80301800
 H                 -0.38690300   -0.76276200   -3.21900400
 H                 -1.96457500    0.08245800   -3.39765100
 H                  0.36473100   -3.07816000    3.73374400
 H                  0.26144700   -1.30621600    4.04764000
 H                  1.36095200   -1.92048800    2.76090900
 O                  3.03260000   -0.87467000    1.37110800
 O                  1.97265400   -0.87355400   -1.96803600
 O                  0.65457600    2.96565800    0.40881100
 S                  1.25582600    3.60794000   -0.78350400
 S                  3.82861400    0.20162400    2.01655100
 S                  1.47024900   -2.15888500   -1.42973900
 O                  1.93232500    2.57223000   -1.60824700
 O                  1.97530900    4.84692800   -0.57435700
 O                  3.17758800    1.50886100    1.75254800
 O                  4.31112400   -0.04744300    3.35627100
 O                  0.78503300   -1.92074700   -0.13030700
 O                  0.75302200   -3.02200200   -2.35154500
 C                  3.00707200   -3.10509500   -0.96891900
 C                  5.30778800    0.28051900    0.93124400
 C                 -0.18874600    4.09769100   -1.80747600
 F                  2.82336200   -3.71400100    0.18820000
 F                  4.04517400   -2.29522300   -0.88897300
 F                  3.24129000   -4.01192600   -1.90346600
 F                  4.90049600    0.55806900   -0.30641800
 F                  5.94332600   -0.87865100    0.92561500
 F                  6.13421600    1.23010400    1.33402400
 F                 -0.89273200    3.03770900   -2.17303500
 F                  0.23301200    4.72731200   -2.89426500
 F                 -0.96840300    4.91257100   -1.11215100
 C                 -3.98559100    0.07910900    0.25784500
 H                 -3.75222800    0.27195500   -0.80465900
 C                 -4.74905800   -1.31126200    0.27327100
 C                 -5.92975500   -1.24987800   -0.59905200
 C                 -5.14857100   -1.63659600    1.65775900
 C                 -1.68101800   -3.52079500   -0.04637900
 C                 -3.32274400   -3.94144200   -1.73382600
 C                 -2.07895500   -4.24935600   -1.12942700
 H                 -0.73469900   -3.70622400    0.46191900
 H                 -3.68052400   -4.46786300   -2.62070900
 H                 -1.45894000   -5.04869000   -1.53486300
 N                 -6.87254900   -1.11839500   -1.25457300
 N                 -5.43410700   -1.87994000    2.75156300
 N                 -3.80430700   -2.33539900   -0.21412300
 N                 -4.14818600   -3.01434500   -1.25854900
 C                 -2.53617900   -2.44066600    0.50015500
 H                 -2.75921000   -2.67196400    1.56276800
 Yb                 1.60779400    0.68375600   -0.01190900
 O                 -2.82951300   -0.09882000    1.03484300

H     0
S    3   1.00
     13.0107010              0.19682158D-01
      1.9622572              0.13796524
      0.44453796             0.47831935
S    1   1.00
      0.12194962             1.0000000
P    1   1.00
      0.8000000              1.0000000
****
C     0
S    5   1.00
   1238.4016938              0.54568832082D-02
    186.29004992             0.40638409211D-01
     42.251176346            0.18025593888
     11.676557932            0.46315121755
      3.5930506482           0.44087173314
S    1   1.00
      0.40245147363          1.0000000
S    1   1.00
      0.13090182668          1.0000000
P    3   1.00
      9.4680970621           0.38387871728D-01
      2.0103545142           0.21117025112
      0.54771004707          0.51328172114
P    1   1.00
      0.15268613795          1.0000000
D    1   1.00
      0.8000000              1.0000000
****
N     0
S    5   1.00
   1712.8415853             -0.53934125305D-02
    257.64812677            -0.40221581118D-01
     58.458245853           -0.17931144990
     16.198367905           -0.46376317823
      5.0052600809          -0.44171422662
S    1   1.00
      0.58731856571          1.0000000
S    1   1.00
      0.18764592253          1.0000000
P    3   1.00
     13.571470233           -0.40072398852D-01
      2.9257372874          -0.21807045028
      0.79927750754         -0.51294466049
P    1   1.00
      0.21954348034          1.0000000
D    1   1.00
      1.0000000              1.0000000
****
O     0
S    5   1.00
   2266.1767785             -0.53431809926D-02
    340.87010191            -0.39890039230D-01
     77.363135167           -0.17853911985
     21.479644940           -0.46427684959
      6.6589433124          -0.44309745172
S    1   1.00
      0.80975975668          1.0000000
S    1   1.00
      0.25530772234          1.0000000
P    3   1.00
     17.721504317            0.43394573193D-01
      3.8635505440           0.23094120765
      1.0480920883           0.51375311064
P    1   1.00
      0.27641544411          1.0000000
D    1   1.00
      1.2000000              1.0000000
****
F     0
S    5   1.00
   2894.8325990             -0.53408255515D-02
    435.41939120            -0.39904258866D-01
     98.843328866           -0.17912768038
     27.485198001           -0.46758090825
      8.5405498171          -0.44653131020
S    1   1.00
      1.0654578038           1.0000000
S    1   1.00
      0.33247346748          1.0000000
P    3   1.00
     22.696633924           -0.45212874436D-01
      4.9872339257          -0.23754317067
      1.3491613954          -0.51287353587
P    1   1.00
      0.34829881977          1.0000000
D    1   1.00
      1.4000000              1.0000000
****
S     0
S    5   1.00
   9184.9303010             -0.22294387756D-02
   1381.5105503             -0.16683029937D-01
    313.87147580            -0.75262436116D-01
     88.053870623           -0.19376827038
     27.039914905           -0.17718020803
S    3   1.00
     45.648731303           -0.10736062573
      4.9664522326           0.65066293018
      2.0116242047           0.59712155354
S    1   1.00
      0.35661077013          1.0000000
S    1   1.00
      0.13507221477          1.0000000
P    5   1.00
    261.98233439            -0.92729929822D-02
     61.306894736           -0.66547669241D-01
     19.103729887           -0.24828595903
      6.6567720378          -0.48703847402
      2.3959635161          -0.39337850312
P    1   1.00
      0.61776161679          1.0000000
P    1   1.00
      0.16993376871          1.0000000
D    1   1.00
      0.5500000              1.0000000
****
Yb     0
S    5   1.00
  91972.903000               0.51000000000D-04
  13787.371000               0.38600000000D-03
   3123.6135000              0.18440000000D-02
    871.47540000             0.53560000000D-02
    250.46300000             0.88590000000D-02
S    1   1.00
     58.282700000            1.0000000
S    1   1.00
     41.630500000            1.0000000
S    1   1.00
     20.216400000            1.0000000
S    1   1.00
      4.9972000000           1.0000000
S    1   1.00
      2.4822000000           1.0000000
S    1   1.00
      0.91790000000          1.0000000
S    1   1.00
      0.38530000000          1.0000000
S    1   1.00
      0.61400000000D-01      1.0000000
S    1   1.00
      0.25000000000D-01      1.0000000
P    3   1.00
     12.274108000           -0.15252141000
     10.695631000           -0.20243492000
      2.0359782000          -0.19621046000
P    6   1.00
   1497.5567000             -0.10182934000D-02
    375.04101000            -0.60919401000D-02
    128.69727000            -0.17077693000D-01
     45.270759000           -0.35655508000D-01
     14.906971000            0.23732226000
      5.6450858000          -0.30559689000
P    1   1.00
      3.6752106000           1.0000000
P    1   1.00
      1.3296961000           1.0000000
P    1   1.00
      0.55338966000          1.0000000
P    1   1.00
      0.22382350000          1.0000000
P    1   1.00
      0.68350467650D-01      1.0000000
P    1   1.00
      0.25355670803D-01      1.0000000
D    6   1.00
    469.76060000             0.19840000000D-02
    142.61280000             0.16013000000D-01
     55.126700000            0.63153000000D-01
     23.441500000            0.13780000000
      9.4951000000           0.28549800000
      4.5792000000           0.43830900000
D    1   1.00
      2.1646000000           1.0000000
D    1   1.00
      0.92380000000          1.0000000
D    1   1.00
      0.31070000000          1.0000000
D    1   1.00
      0.91400000000D-01      1.0000000
F    5   1.00
    142.02930000             0.59570000000D-02
     51.086200000            0.53180000000D-01
     22.874100000            0.17807600000
     10.502500000            0.30060000000
      4.7872000000           0.35034200000
F    1   1.00
      2.1088000000           1.0000000
F    1   1.00
      0.86090000000          1.0000000
F    1   1.00
      0.30600000000          1.0000000
G    1   1.00
      0.51330000000          1.0000000
****

Yb     0
Yb-ECP     5     28
h potential
  1
2      1.00000000             0.00000000
s-h potential
  1
2     32.42448400           891.01377700
p-h potential
  1
2     18.65623200           264.03695300
d-h potential
  1
2     10.49022200            73.92391900
f-h potential
  1
2     20.77418300           -39.59217300
g-h potential
  1
2     28.43102800           -34.63863800





























































