%chk=preplx.chk
%mem=616Gb
%nprocshared=24
#P  MN15/gen scf=(maxcyc=500) opt freq scrf=(smd,solvent=DiChloroEthane)  

Opt

0 1
 C                 -4.07701200   -1.83824400   -0.55892900
 C                 -5.02411200   -0.98045500    0.02157800
 C                 -6.08463200   -0.47140900   -0.72750000
 C                 -6.21127300   -0.81772800   -2.07489500
 C                 -5.29078600   -1.69596200   -2.65358100
 C                 -4.23598500   -2.21451600   -1.90056500
 C                 -1.47451700   -1.99675900    0.14359800
 C                 -0.71256400   -1.68609000    1.37915600
 C                 -0.97463800   -1.33751900   -1.09042800
 H                 -4.92107200   -0.71477800    1.07939700
 H                 -6.80189700    0.20980000   -0.26215100
 H                 -7.03245100   -0.41183400   -2.66990400
 H                 -5.39897100   -1.98825800   -3.70038900
 H                 -3.54305400   -2.91886200   -2.36258900
 O                 -0.29684100   -0.29413800   -1.06395700
 O                  0.38780500   -1.12014800    1.40711300
 O                  1.93764400    1.82798800   -1.14757800
 O                  2.47553000    0.91979200    1.61919600
 O                  1.43312600   -2.34903000   -0.81383700
 S                  2.72249600   -2.69180100   -0.15124000
 S                  2.76102800    1.25372700   -2.26144700
 S                  1.36437900    1.87835400    1.93505900
 O                  3.17838900   -1.41437300    0.49043300
 O                  3.69505200   -3.45022700   -0.89166900
 O                  2.65087300   -0.22338000   -2.04367900
 O                  2.57741500    1.77134300   -3.58803900
 O                  0.30388800    1.55986900    0.93741300
 O                  0.96242900    1.99659400    3.31532200
 C                  2.04008000    3.54670000    1.42809300
 C                  4.48224300    1.63757900   -1.73163300
 C                  2.23642400   -3.76037100    1.30743600
 F                  1.20915800    4.11277700    0.57975800
 F                  3.22391800    3.39890600    0.86863100
 F                  2.15297300    4.29572600    2.50744100
 F                  4.64855400    1.15730400   -0.51087300
 F                  4.65867700    2.94295500   -1.72667400
 F                  5.33701600    1.06912500   -2.55669200
 F                  2.52343500   -3.13895000    2.43384000
 F                  2.89182400   -4.89869600    1.24577900
 F                  0.93278800   -4.00255800    1.26622300
 C                 -2.99186600   -2.33914600    0.33329900
 H                 -3.24660100   -2.22660500    1.39058300
 C                 -4.20578000    2.16656100   -0.84237100
 C                 -5.43986800    2.76239200   -1.17534700
 C                 -3.38558900    1.59031800   -1.82863500
 C                 -2.50880900    1.14083500    2.24618400
 C                 -4.71902300    1.90680500    2.63741400
 C                 -3.53241000    1.37721400    3.15569500
 H                 -1.52104000    0.79310200    2.55333500
 H                 -5.56957300    2.14308800    3.28096600
 H                 -3.42184800    1.18723600    4.22294400
 N                 -6.45261200    3.24429600   -1.49530000
 N                 -2.70840600    1.08053400   -2.63107100
 N                 -3.92373600    1.91009800    0.50248500
 N                 -4.91208600    2.16191400    1.35308100
 Sc                 1.54835600   -0.08748400   -0.08582100
 C                 -2.03640500   -3.41553300    0.04352000
 H                 -1.75091900   -4.08822400    0.85483800
 H                 -2.00090400   -3.84128900   -0.96181600
 C                 -2.72499200    1.41238700    0.90346700
 H                 -1.96022400    1.28232400    0.13655400
 C                 -1.28262006   -1.98022261   -2.29707670
 H                 -1.65064171   -2.96406874   -2.09334440
 H                 -2.03073050   -1.42045883   -2.81851249
 H                 -0.40163897   -2.04685851   -2.90067588
 C                 -1.30826811   -2.13864360    2.56416816
 H                 -2.16508594   -1.53698702    2.78501329
 H                 -1.60963357   -3.15839085    2.44502785
 H                 -0.60491791   -2.06608749    3.36724605

H     0
S    3   1.00
     13.0107010              0.19682158D-01
      1.9622572              0.13796524
      0.44453796             0.47831935
S    1   1.00
      0.12194962             1.0000000
P    1   1.00
      0.8000000              1.0000000
****
C     0
S    5   1.00
   1238.4016938              0.54568832082D-02
    186.29004992             0.40638409211D-01
     42.251176346            0.18025593888
     11.676557932            0.46315121755
      3.5930506482           0.44087173314
S    1   1.00
      0.40245147363          1.0000000
S    1   1.00
      0.13090182668          1.0000000
P    3   1.00
      9.4680970621           0.38387871728D-01
      2.0103545142           0.21117025112
      0.54771004707          0.51328172114
P    1   1.00
      0.15268613795          1.0000000
D    1   1.00
      0.8000000              1.0000000
****
N     0
S    5   1.00
   1712.8415853             -0.53934125305D-02
    257.64812677            -0.40221581118D-01
     58.458245853           -0.17931144990
     16.198367905           -0.46376317823
      5.0052600809          -0.44171422662
S    1   1.00
      0.58731856571          1.0000000
S    1   1.00
      0.18764592253          1.0000000
P    3   1.00
     13.571470233           -0.40072398852D-01
      2.9257372874          -0.21807045028
      0.79927750754         -0.51294466049
P    1   1.00
      0.21954348034          1.0000000
D    1   1.00
      1.0000000              1.0000000
****
O     0
S    5   1.00
   2266.1767785             -0.53431809926D-02
    340.87010191            -0.39890039230D-01
     77.363135167           -0.17853911985
     21.479644940           -0.46427684959
      6.6589433124          -0.44309745172
S    1   1.00
      0.80975975668          1.0000000
S    1   1.00
      0.25530772234          1.0000000
P    3   1.00
     17.721504317            0.43394573193D-01
      3.8635505440           0.23094120765
      1.0480920883           0.51375311064
P    1   1.00
      0.27641544411          1.0000000
D    1   1.00
      1.2000000              1.0000000
****
F     0
S    5   1.00
   2894.8325990             -0.53408255515D-02
    435.41939120            -0.39904258866D-01
     98.843328866           -0.17912768038
     27.485198001           -0.46758090825
      8.5405498171          -0.44653131020
S    1   1.00
      1.0654578038           1.0000000
S    1   1.00
      0.33247346748          1.0000000
P    3   1.00
     22.696633924           -0.45212874436D-01
      4.9872339257          -0.23754317067
      1.3491613954          -0.51287353587
P    1   1.00
      0.34829881977          1.0000000
D    1   1.00
      1.4000000              1.0000000
****
S     0
S    5   1.00
   9184.9303010             -0.22294387756D-02
   1381.5105503             -0.16683029937D-01
    313.87147580            -0.75262436116D-01
     88.053870623           -0.19376827038
     27.039914905           -0.17718020803
S    3   1.00
     45.648731303           -0.10736062573
      4.9664522326           0.65066293018
      2.0116242047           0.59712155354
S    1   1.00
      0.35661077013          1.0000000
S    1   1.00
      0.13507221477          1.0000000
P    5   1.00
    261.98233439            -0.92729929822D-02
     61.306894736           -0.66547669241D-01
     19.103729887           -0.24828595903
      6.6567720378          -0.48703847402
      2.3959635161          -0.39337850312
P    1   1.00
      0.61776161679          1.0000000
P    1   1.00
      0.16993376871          1.0000000
D    1   1.00
      0.5500000              1.0000000
****
Sc     0
S    8   1.00
 191612.9187400              0.23076475942D-03
  28723.8503630              0.17890329946D-02
   6537.0116490              0.92990401140D-02
   1850.3097171              0.37739438011D-01
    602.38855156             0.12227148359
    216.17324766             0.28814821470
     83.712517880            0.40517543099
     32.908707189            0.20566019623
S    4   1.00
    211.34393234            -0.24527991462D-01
     65.128920139           -0.11570158142
     10.034311535            0.55995283317
      4.1596884597           0.56087765073
S    2   1.00
      6.0009041613          -0.22840494325
      0.98255784150          0.71948970378
S    1   1.00
      0.42483192773          1.0000000
S    1   1.00
      0.77185462096D-01      1.0000000
S    1   1.00
      0.30147219702D-01      1.0000000
P    6   1.00
    947.34122823             0.24737208744D-02
    224.09699732             0.19742967060D-01
     71.560334882            0.90357147549D-01
     26.444824490            0.25201602503
     10.393798285            0.39675535929
      4.1606304559           0.23208624517
P    3   1.00
     15.565737135           -0.27129423974D-01
      2.1121544865           0.55109256629
      0.84184709021          1.0090635806
P    1   1.00
      0.32297542652          1.0000000
P    1   1.00
      0.0897480              1.0000000
D    4   1.00
     30.989390993            0.11902837431D-01
      8.6905465069           0.67655856850D-01
      2.9520256337           0.21332539722
      1.0761910745           0.38391075578
D    1   1.00
      0.38338915095           .43354716259
D    1   1.00
      0.12534686113           .24509263822
D    1   1.00
      0.0410000              1.0000000
F    1   1.00
      0.3450000              1.0000000
****












































































