%chk=i2-keto.chk
%mem=616Gb
%nprocshared=24
#P  UMN15/genecp scf=(maxcyc=500) freq scrf=(smd,solvent=DiChloroEthane)  

Opt

0 2
C                 -5.3310610000     -1.0906080000      0.8948950000
C                 -5.8281330000     -1.7968330000     -0.2080280000
C                 -6.8662120000     -2.7113390000     -0.0275560000
C                 -7.4080550000     -2.9169180000      1.2440020000
C                 -6.9081970000     -2.2140070000      2.3431870000
C                 -5.8651360000     -1.3039400000      2.1719860000
C                 -2.0558810000     -0.2645150000     -0.2973530000
C                 -1.3137230000     -0.7045750000      0.9076250000
C                 -1.4100990000      0.2413160000     -1.5155630000
H                 -5.3989930000     -1.6391130000     -1.2001910000
H                 -7.2512900000     -3.2675890000     -0.8845000000
H                 -8.2196670000     -3.6349750000      1.3801120000
H                 -7.3236510000     -2.3816860000      3.3387960000
H                 -5.4586890000     -0.7607850000      3.0297310000
O                 -0.2051140000      0.4962000000     -1.5180820000
O                 -0.2524780000     -0.1656290000      1.2065620000
O                  1.2317800000      2.3695160000      0.2050590000
O                  2.5102320000     -1.9852540000      1.3468290000
O                  0.2344080000     -2.2121040000     -0.7359880000
S                  0.8166680000     -2.3520450000     -2.0880460000
S                  1.7941440000      2.8705110000     -1.0738300000
S                  3.0192860000     -1.1373260000      2.4503860000
O                  2.0035960000     -1.4748290000     -2.2348860000
O                 -0.1240410000     -2.3599740000     -3.1959030000
O                  2.5338810000      1.7958040000     -1.7662630000
O                  0.9110430000      3.6993370000     -1.8795560000
O                  2.7900630000      0.2920870000      2.1297230000
O                  2.7250030000     -1.5644780000      3.8027020000
C                  4.8393730000     -1.2976290000      2.2776990000
C                  3.1045280000      4.0203170000     -0.5037080000
C                  1.5436760000     -4.0367280000     -2.0814470000
F                  5.4557440000     -0.5333590000      3.1663130000
F                  5.2014970000     -0.9128140000      1.0573390000
F                  5.2121940000     -2.5553450000      2.4569390000
F                  3.7423350000      4.5451910000     -1.5371480000
F                  3.9726040000      3.3733840000      0.2598100000
F                  2.5510920000      4.9974160000      0.2043320000
F                  0.5931800000     -4.9346330000     -1.8643270000
F                  2.4575690000     -4.1370700000     -1.1295140000
F                  2.1112290000     -4.2862640000     -3.2525360000
C                 -4.2176660000     -0.0945680000      0.7297700000
H                 -3.6443180000      0.0103670000      1.6634130000
C                 -4.7453750000      1.3650440000      0.4090970000
C                 -5.5617590000      1.8637440000      1.5285250000
C                 -5.5329530000      1.3231850000     -0.8316450000
C                 -2.1588240000      3.7803640000     -0.8841870000
C                 -1.6606510000      2.9258470000      1.2986050000
C                 -1.3107650000      3.7498520000      0.2053060000
H                 -1.9477630000      4.3770830000     -1.7715370000
H                 -1.0236300000      2.8412560000      2.1811730000
H                 -0.3883120000      4.3276440000      0.2307170000
N                 -6.1895070000      2.2337060000      2.4258520000
N                 -6.1439020000      1.2354060000     -1.8093530000
N                 -3.5557920000      2.2649370000      0.2567530000
N                 -2.7635290000      2.2104450000      1.3143760000
C                 -3.3219610000      3.0080270000     -0.8310980000
H                 -4.0553620000      2.9797660000     -1.6399280000
O                 -3.3854360000     -0.4227990000     -0.3658370000
Yb                 1.7929050000     -0.0775760000     -0.1668880000
C                 -2.2288940000      0.3856170000     -2.7591830000
H                 -2.1378390000     -0.5743100000     -3.2966530000
H                 -3.2943650000      0.5753060000     -2.5796980000
H                 -1.7832650000      1.1651880000     -3.3902130000
C                 -1.8662710000     -1.8427730000      1.7110010000
H                 -2.2033280000     -1.4763410000      2.6944220000
H                 -2.6891910000     -2.3689790000      1.2108050000
H                 -1.0324090000     -2.5370660000      1.8887670000

H     0
S    3   1.00
     13.0107010              0.19682158D-01
      1.9622572              0.13796524
      0.44453796             0.47831935
S    1   1.00
      0.12194962             1.0000000
P    1   1.00
      0.8000000              1.0000000
****
C     0
S    5   1.00
   1238.4016938              0.54568832082D-02
    186.29004992             0.40638409211D-01
     42.251176346            0.18025593888
     11.676557932            0.46315121755
      3.5930506482           0.44087173314
S    1   1.00
      0.40245147363          1.0000000
S    1   1.00
      0.13090182668          1.0000000
P    3   1.00
      9.4680970621           0.38387871728D-01
      2.0103545142           0.21117025112
      0.54771004707          0.51328172114
P    1   1.00
      0.15268613795          1.0000000
D    1   1.00
      0.8000000              1.0000000
****
N     0
S    5   1.00
   1712.8415853             -0.53934125305D-02
    257.64812677            -0.40221581118D-01
     58.458245853           -0.17931144990
     16.198367905           -0.46376317823
      5.0052600809          -0.44171422662
S    1   1.00
      0.58731856571          1.0000000
S    1   1.00
      0.18764592253          1.0000000
P    3   1.00
     13.571470233           -0.40072398852D-01
      2.9257372874          -0.21807045028
      0.79927750754         -0.51294466049
P    1   1.00
      0.21954348034          1.0000000
D    1   1.00
      1.0000000              1.0000000
****
O     0
S    5   1.00
   2266.1767785             -0.53431809926D-02
    340.87010191            -0.39890039230D-01
     77.363135167           -0.17853911985
     21.479644940           -0.46427684959
      6.6589433124          -0.44309745172
S    1   1.00
      0.80975975668          1.0000000
S    1   1.00
      0.25530772234          1.0000000
P    3   1.00
     17.721504317            0.43394573193D-01
      3.8635505440           0.23094120765
      1.0480920883           0.51375311064
P    1   1.00
      0.27641544411          1.0000000
D    1   1.00
      1.2000000              1.0000000
****
F     0
S    5   1.00
   2894.8325990             -0.53408255515D-02
    435.41939120            -0.39904258866D-01
     98.843328866           -0.17912768038
     27.485198001           -0.46758090825
      8.5405498171          -0.44653131020
S    1   1.00
      1.0654578038           1.0000000
S    1   1.00
      0.33247346748          1.0000000
P    3   1.00
     22.696633924           -0.45212874436D-01
      4.9872339257          -0.23754317067
      1.3491613954          -0.51287353587
P    1   1.00
      0.34829881977          1.0000000
D    1   1.00
      1.4000000              1.0000000
****
S     0
S    5   1.00
   9184.9303010             -0.22294387756D-02
   1381.5105503             -0.16683029937D-01
    313.87147580            -0.75262436116D-01
     88.053870623           -0.19376827038
     27.039914905           -0.17718020803
S    3   1.00
     45.648731303           -0.10736062573
      4.9664522326           0.65066293018
      2.0116242047           0.59712155354
S    1   1.00
      0.35661077013          1.0000000
S    1   1.00
      0.13507221477          1.0000000
P    5   1.00
    261.98233439            -0.92729929822D-02
     61.306894736           -0.66547669241D-01
     19.103729887           -0.24828595903
      6.6567720378          -0.48703847402
      2.3959635161          -0.39337850312
P    1   1.00
      0.61776161679          1.0000000
P    1   1.00
      0.16993376871          1.0000000
D    1   1.00
      0.5500000              1.0000000
****
Yb     0
S    5   1.00
  91972.903000               0.51000000000D-04
  13787.371000               0.38600000000D-03
   3123.6135000              0.18440000000D-02
    871.47540000             0.53560000000D-02
    250.46300000             0.88590000000D-02
S    1   1.00
     58.282700000            1.0000000
S    1   1.00
     41.630500000            1.0000000
S    1   1.00
     20.216400000            1.0000000
S    1   1.00
      4.9972000000           1.0000000
S    1   1.00
      2.4822000000           1.0000000
S    1   1.00
      0.91790000000          1.0000000
S    1   1.00
      0.38530000000          1.0000000
S    1   1.00
      0.61400000000D-01      1.0000000
S    1   1.00
      0.25000000000D-01      1.0000000
P    3   1.00
     12.274108000           -0.15252141000
     10.695631000           -0.20243492000
      2.0359782000          -0.19621046000
P    6   1.00
   1497.5567000             -0.10182934000D-02
    375.04101000            -0.60919401000D-02
    128.69727000            -0.17077693000D-01
     45.270759000           -0.35655508000D-01
     14.906971000            0.23732226000
      5.6450858000          -0.30559689000
P    1   1.00
      3.6752106000           1.0000000
P    1   1.00
      1.3296961000           1.0000000
P    1   1.00
      0.55338966000          1.0000000
P    1   1.00
      0.22382350000          1.0000000
P    1   1.00
      0.68350467650D-01      1.0000000
P    1   1.00
      0.25355670803D-01      1.0000000
D    6   1.00
    469.76060000             0.19840000000D-02
    142.61280000             0.16013000000D-01
     55.126700000            0.63153000000D-01
     23.441500000            0.13780000000
      9.4951000000           0.28549800000
      4.5792000000           0.43830900000
D    1   1.00
      2.1646000000           1.0000000
D    1   1.00
      0.92380000000          1.0000000
D    1   1.00
      0.31070000000          1.0000000
D    1   1.00
      0.91400000000D-01      1.0000000
F    5   1.00
    142.02930000             0.59570000000D-02
     51.086200000            0.53180000000D-01
     22.874100000            0.17807600000
     10.502500000            0.30060000000
      4.7872000000           0.35034200000
F    1   1.00
      2.1088000000           1.0000000
F    1   1.00
      0.86090000000          1.0000000
F    1   1.00
      0.30600000000          1.0000000
G    1   1.00
      0.51330000000          1.0000000
****

Yb     0
Yb-ECP     5     28
h potential
  1
2      1.00000000             0.00000000
s-h potential
  1
2     32.42448400           891.01377700
p-h potential
  1
2     18.65623200           264.03695300
d-h potential
  1
2     10.49022200            73.92391900
f-h potential
  1
2     20.77418300           -39.59217300
g-h potential
  1
2     28.43102800           -34.63863800





























































