%chk=i2.chk
%mem=616Gb
%nprocshared=24
#P  UMN15/genecp scf=(maxcyc=500) opt=modred scrf=(smd,solvent=DiChloroEthane)  

Scan

0 1
 C                 -5.65292100   -0.69084000   -0.17983600
 C                 -6.83115400   -0.58836700    0.56946200
 C                 -7.87297700   -1.49200300    0.35786600
 C                 -7.73744400   -2.50262200   -0.59773100
 C                 -6.55932400   -2.60911000   -1.34132300
 C                 -5.51553600   -1.70536300   -1.13591200
 C                 -2.09205200    0.29998000   -0.26632100
 C                 -1.44851000    0.50271000    1.05094000
 C                 -1.20744500   -0.20503000   -1.32939700
 H                 -6.92683200    0.19891200    1.32262100
 H                 -8.78937800   -1.41183900    0.94634800
 H                 -8.55107100   -3.21336100   -0.75921600
 H                 -6.45004700   -3.40234200   -2.08405700
 H                 -4.58631800   -1.78639600   -1.70463300
 O                 -0.05412700    0.25472000   -1.46038400
 O                 -0.22924500    0.58985000    1.24417400
 O                 -2.31539300    0.71269400    2.00330900
 O                 -1.72149100   -1.05983800   -2.15073200
 C                 -1.82800600    1.12119600    3.29174700
 C                 -0.87750100   -1.57485600   -3.19468200
 H                 -2.71125100    1.23239900    3.92774800
 H                 -1.29530700    2.07782200    3.19745600
 H                 -1.15164000    0.36197000    3.70118300
 H                 -1.41010600   -2.43100300   -3.61854400
 H                  0.08774300   -1.88786400   -2.77359500
 H                 -0.72479900   -0.80212500   -3.95958200
 O                  3.19431600    0.40779800   -1.53676600
 O                  2.94861000    0.91232200    1.52314100
 O                  0.06047800   -2.04041400    0.12335100
 S                  0.90407100   -2.76907900    1.11537900
 S                  3.46550100   -0.98478000   -2.01939100
 S                  2.77533300    2.32661700    1.04904600
 O                  1.93023300   -1.77338000    1.57170400
 O                  1.36346600   -4.09110800    0.78127000
 O                  2.40836100   -1.81788100   -1.36643000
 O                  3.72369700   -1.17731000   -3.41913200
 O                  1.76435900    2.24544600   -0.04517400
 O                  2.58845700    3.33911100    2.05570700
 C                  4.38881400    2.73524500    0.19523100
 C                  4.98689400   -1.44160900   -1.09142400
 C                 -0.18920400   -2.98707600    2.58054900
 F                  4.14015300    3.16354700   -1.02423200
 F                  5.15973400    1.66719100    0.14851500
 F                  4.99397500    3.68353800    0.88321600
 F                  4.73771500   -1.26454500    0.19827400
 F                  5.98481500   -0.66719800   -1.46358500
 F                  5.28587600   -2.70377800   -1.31819900
 F                 -0.81678500   -1.85072000    2.84302000
 F                  0.54079900   -3.33718800    3.61990300
 F                 -1.07548600   -3.92597800    2.31728600
 C                 -4.54946700    0.31237600    0.02856000
 H                 -4.57911800    0.72028800    1.05330400
 C                 -4.68156700    1.56791400   -0.89816500
 C                 -5.99686500    2.21354000   -0.74188900
 C                 -4.49816700    1.14891600   -2.30193000
 C                 -1.29364000    3.04533700   -0.32832600
 C                 -2.96049900    3.79644000    1.24392000
 C                 -1.60418100    3.81669000    0.73760300
 H                 -0.29274500    3.01253800   -0.75900600
 H                 -3.23630000    4.34600500    2.14693900
 H                 -0.85927100    4.45775100    1.21195200
 N                 -7.04565400    2.68590300   -0.62458400
 N                 -4.32832500    0.76503200   -3.38552900
 N                 -3.61716700    2.50238500   -0.49829300
 N                 -3.91004800    3.14820400    0.65280000
 C                 -2.32345700    2.18225000   -0.89851800
 H                 -2.23023800    1.97257300   -1.96976200
 Lu                 1.55610000   -0.11655400    0.02570700
 O                 -3.32152700   -0.32737600   -0.24603600

7 66 S 10 +0.1

H     0
S    3   1.00
     13.0107010              0.19682158D-01
      1.9622572              0.13796524
      0.44453796             0.47831935
S    1   1.00
      0.12194962             1.0000000
P    1   1.00
      0.8000000              1.0000000
****
C     0
S    5   1.00
   1238.4016938              0.54568832082D-02
    186.29004992             0.40638409211D-01
     42.251176346            0.18025593888
     11.676557932            0.46315121755
      3.5930506482           0.44087173314
S    1   1.00
      0.40245147363          1.0000000
S    1   1.00
      0.13090182668          1.0000000
P    3   1.00
      9.4680970621           0.38387871728D-01
      2.0103545142           0.21117025112
      0.54771004707          0.51328172114
P    1   1.00
      0.15268613795          1.0000000
D    1   1.00
      0.8000000              1.0000000
****
N     0
S    5   1.00
   1712.8415853             -0.53934125305D-02
    257.64812677            -0.40221581118D-01
     58.458245853           -0.17931144990
     16.198367905           -0.46376317823
      5.0052600809          -0.44171422662
S    1   1.00
      0.58731856571          1.0000000
S    1   1.00
      0.18764592253          1.0000000
P    3   1.00
     13.571470233           -0.40072398852D-01
      2.9257372874          -0.21807045028
      0.79927750754         -0.51294466049
P    1   1.00
      0.21954348034          1.0000000
D    1   1.00
      1.0000000              1.0000000
****
O     0
S    5   1.00
   2266.1767785             -0.53431809926D-02
    340.87010191            -0.39890039230D-01
     77.363135167           -0.17853911985
     21.479644940           -0.46427684959
      6.6589433124          -0.44309745172
S    1   1.00
      0.80975975668          1.0000000
S    1   1.00
      0.25530772234          1.0000000
P    3   1.00
     17.721504317            0.43394573193D-01
      3.8635505440           0.23094120765
      1.0480920883           0.51375311064
P    1   1.00
      0.27641544411          1.0000000
D    1   1.00
      1.2000000              1.0000000
****
F     0
S    5   1.00
   2894.8325990             -0.53408255515D-02
    435.41939120            -0.39904258866D-01
     98.843328866           -0.17912768038
     27.485198001           -0.46758090825
      8.5405498171          -0.44653131020
S    1   1.00
      1.0654578038           1.0000000
S    1   1.00
      0.33247346748          1.0000000
P    3   1.00
     22.696633924           -0.45212874436D-01
      4.9872339257          -0.23754317067
      1.3491613954          -0.51287353587
P    1   1.00
      0.34829881977          1.0000000
D    1   1.00
      1.4000000              1.0000000
****
S     0
S    5   1.00
   9184.9303010             -0.22294387756D-02
   1381.5105503             -0.16683029937D-01
    313.87147580            -0.75262436116D-01
     88.053870623           -0.19376827038
     27.039914905           -0.17718020803
S    3   1.00
     45.648731303           -0.10736062573
      4.9664522326           0.65066293018
      2.0116242047           0.59712155354
S    1   1.00
      0.35661077013          1.0000000
S    1   1.00
      0.13507221477          1.0000000
P    5   1.00
    261.98233439            -0.92729929822D-02
     61.306894736           -0.66547669241D-01
     19.103729887           -0.24828595903
      6.6567720378          -0.48703847402
      2.3959635161          -0.39337850312
P    1   1.00
      0.61776161679          1.0000000
P    1   1.00
      0.16993376871          1.0000000
D    1   1.00
      0.5500000              1.0000000
****
Lu     0
S    5   1.00
  95169.767000               0.22000000000D-04
  15488.403000               0.14500000000D-03
   3776.2335000              0.65100000000D-03
   1079.0501000              0.20380000000D-02
    268.95380000             0.51270000000D-02
S    1   1.00
     63.467900000            1.0000000
S    1   1.00
     45.133200000            1.0000000
S    1   1.00
     21.456800000            1.0000000
S    1   1.00
      5.3483000000           1.0000000
S    1   1.00
      2.6778000000           1.0000000
S    1   1.00
      1.0287000000           1.0000000
S    1   1.00
      0.44080000000          1.0000000
S    1   1.00
      0.79100000000D-01      1.0000000
S    1   1.00
      0.31300000000D-01      1.0000000
P    3   1.00
     12.333733920           -0.15313031066
     11.080331415           -0.20300664852
      2.0341747228          -0.19458361263
P    6   1.00
   1500.5317313             -0.10192569555D-02
    382.39748937            -0.59476212135D-02
    132.99969628            -0.16265160929D-01
     46.110032419           -0.35623845839D-01
     15.583529011            0.23709171074
      5.7856677022          -0.30670977844
P    1   1.00
      3.7823361008           1.0000000
P    1   1.00
      1.3682592248           1.0000000
P    1   1.00
      0.57288205601          1.0000000
P    1   1.00
      0.22793165135          1.0000000
P    1   1.00
      0.81403917986D-01      1.0000000
P    1   1.00
      0.29091071778D-01      1.0000000
D    6   1.00
    484.52750000             0.22860000000D-02
    146.66550000             0.18629000000D-01
     56.377900000            0.74088000000D-01
     23.671100000            0.16155400000
      9.4401000000           0.30809100000
      4.3712000000           0.44833400000
D    1   1.00
      1.9580000000           1.0000000
D    1   1.00
      0.72720000000          1.0000000
D    1   1.00
      0.24600000000          1.0000000
D    1   1.00
      0.74400000000D-01      1.0000000
F    5   1.00
    175.15590000             0.41020000000D-02
     62.890900000            0.39086000000D-01
     28.362400000            0.14704400000
     13.247800000            0.27109200000
      6.1440000000           0.34566500000
F    1   1.00
      2.7623000000           1.0000000
F    1   1.00
      1.1574000000           1.0000000
F    1   1.00
      0.42440000000          1.0000000
G    1   1.00
      0.70090000000          1.0000000
****

Lu     0
Lu-ECP     5     28
h potential
  1
2      1.00000000             0.00000000
s-h potential
  1
2     35.16209700           989.99558400
p-h potential
  1
2     19.46440200           278.86565200
d-h potential
  1
2     10.00686500            71.00917800
f-h potential
  1
2     23.51793200           -47.40589000
g-h potential
  1
2     29.41223800           -35.55714600


