%chk=i3-major.chk
%mem=616Gb
%nprocshared=24
#P  UMN15/genecp scf=(maxcyc=500) opt scrf=(smd,solvent=DiChloroEthane)  

Opt

0 1
 C                 -4.84361500    1.20511300    0.80969700
 C                 -5.63704200    1.96988400   -0.05431200
 C                 -6.41963800    3.00506500    0.45668900
 C                 -6.40238300    3.28185700    1.82610400
 C                 -5.60317400    2.52392400    2.68582100
 C                 -4.82386700    1.48183100    2.18244400
 C                 -1.68499894   -0.52113616    0.56625870
 C                 -1.16116594   -0.04106516   -0.80761030
 C                 -0.54843594   -0.49390516    1.61076270
 H                 -5.63555500    1.75531400   -1.12660200
 H                 -7.03632700    3.60270700   -0.21751100
 H                 -7.01018000    4.09711500    2.22469200
 H                 -5.58341300    2.74581900    3.75469400
 H                 -4.19369500    0.89114100    2.85064500
 O                  0.15926706    0.47896784    1.75774670
 O                 -0.44607094    0.92823984   -0.93373130
 O                 -1.64734694   -0.73730616   -1.80204430
 O                 -0.49787094   -1.57901016    2.32977770
 C                 -1.26856594   -0.34766016   -3.13659630
 C                  0.57359006   -1.66883216    3.28770670
 H                 -1.64130094   -1.13482116   -3.79927730
 H                 -0.17704494   -0.26745916   -3.20396930
 H                 -1.73334694    0.61762084   -3.37694230
 H                  0.50479606   -2.66828816    3.72696370
 H                  0.44404906   -0.89750616    4.05806170
 H                  1.53073506   -1.52576116    2.76719870
 O                  3.11204306   -0.74850216    1.37830370
 O                  2.05880106   -0.68896016   -1.96243030
 O                  0.94791006    3.39887984    0.46199070
 S                  1.56687706    4.03795284   -0.72296030
 S                  3.93277306    0.30173684    2.03560370
 S                  1.52425306   -1.96687716   -1.43761130
 O                  2.21955106    2.99418884   -1.55669930
 O                  2.31588706    5.25695684   -0.50046530
 O                  3.31424306    1.62695184    1.78335770
 O                  4.40652806    0.02792084    3.37361770
 O                  0.84255806   -1.72483716   -0.13704830
 O                  0.78799906   -2.80323116   -2.36903730
 C                  3.03672306   -2.95467616   -0.98353830
 C                  5.41549306    0.35520084    0.95358970
 C                  0.13659906    4.57270584   -1.74448230
 F                  2.83605106   -3.57020516    0.16724170
 F                  4.09406406   -2.17113516   -0.89391830
 F                  3.25059206   -3.85776616   -1.92654830
 F                  5.01743106    0.65466184   -0.28196530
 F                  6.02265406   -0.81898716    0.93764470
 F                  6.26400706    1.28040584    1.36704670
 F                 -0.59226594    3.53379784   -2.12159930
 F                  0.57561806    5.20246184   -2.82433630
 F                 -0.62432694    5.39949184   -1.04249430
 C                 -4.03237100    0.07259800    0.24685100
 H                 -3.79236200    0.27007700   -0.81331900
 C                 -4.82946200   -1.29886000    0.24735900
 C                 -6.00665300   -1.20023200   -0.62628600
 C                 -5.23940800   -1.62788300    1.62792000
 C                 -1.81547600   -3.57919700   -0.08884500
 C                 -3.46373100   -3.94324700   -1.78307300
 C                 -2.22895400   -4.28723800   -1.17965300
 H                 -0.98267848   -4.03734910    0.44483532
 H                 -3.83252100   -4.45211200   -2.67567400
 H                 -1.62779600   -5.09742900   -1.59188000
 N                 -6.94471900   -1.03943900   -1.28205500
 N                 -5.53286200   -1.87487900    2.71880600
 N                 -3.90897700   -2.34088100   -0.24848700
 N                 -4.26728000   -3.00101800   -1.30009700
 C                 -2.91671406   -3.03912084    0.43871630
 H                 -2.99669343   -3.01409252    1.54567749
 Lu                 1.84613706    1.09866884    0.02048670
 O                 -2.88244600   -0.14100400    1.02399100

H     0
S    3   1.00
     13.0107010              0.19682158D-01
      1.9622572              0.13796524
      0.44453796             0.47831935
S    1   1.00
      0.12194962             1.0000000
P    1   1.00
      0.8000000              1.0000000
****
C     0
S    5   1.00
   1238.4016938              0.54568832082D-02
    186.29004992             0.40638409211D-01
     42.251176346            0.18025593888
     11.676557932            0.46315121755
      3.5930506482           0.44087173314
S    1   1.00
      0.40245147363          1.0000000
S    1   1.00
      0.13090182668          1.0000000
P    3   1.00
      9.4680970621           0.38387871728D-01
      2.0103545142           0.21117025112
      0.54771004707          0.51328172114
P    1   1.00
      0.15268613795          1.0000000
D    1   1.00
      0.8000000              1.0000000
****
N     0
S    5   1.00
   1712.8415853             -0.53934125305D-02
    257.64812677            -0.40221581118D-01
     58.458245853           -0.17931144990
     16.198367905           -0.46376317823
      5.0052600809          -0.44171422662
S    1   1.00
      0.58731856571          1.0000000
S    1   1.00
      0.18764592253          1.0000000
P    3   1.00
     13.571470233           -0.40072398852D-01
      2.9257372874          -0.21807045028
      0.79927750754         -0.51294466049
P    1   1.00
      0.21954348034          1.0000000
D    1   1.00
      1.0000000              1.0000000
****
O     0
S    5   1.00
   2266.1767785             -0.53431809926D-02
    340.87010191            -0.39890039230D-01
     77.363135167           -0.17853911985
     21.479644940           -0.46427684959
      6.6589433124          -0.44309745172
S    1   1.00
      0.80975975668          1.0000000
S    1   1.00
      0.25530772234          1.0000000
P    3   1.00
     17.721504317            0.43394573193D-01
      3.8635505440           0.23094120765
      1.0480920883           0.51375311064
P    1   1.00
      0.27641544411          1.0000000
D    1   1.00
      1.2000000              1.0000000
****
F     0
S    5   1.00
   2894.8325990             -0.53408255515D-02
    435.41939120            -0.39904258866D-01
     98.843328866           -0.17912768038
     27.485198001           -0.46758090825
      8.5405498171          -0.44653131020
S    1   1.00
      1.0654578038           1.0000000
S    1   1.00
      0.33247346748          1.0000000
P    3   1.00
     22.696633924           -0.45212874436D-01
      4.9872339257          -0.23754317067
      1.3491613954          -0.51287353587
P    1   1.00
      0.34829881977          1.0000000
D    1   1.00
      1.4000000              1.0000000
****
S     0
S    5   1.00
   9184.9303010             -0.22294387756D-02
   1381.5105503             -0.16683029937D-01
    313.87147580            -0.75262436116D-01
     88.053870623           -0.19376827038
     27.039914905           -0.17718020803
S    3   1.00
     45.648731303           -0.10736062573
      4.9664522326           0.65066293018
      2.0116242047           0.59712155354
S    1   1.00
      0.35661077013          1.0000000
S    1   1.00
      0.13507221477          1.0000000
P    5   1.00
    261.98233439            -0.92729929822D-02
     61.306894736           -0.66547669241D-01
     19.103729887           -0.24828595903
      6.6567720378          -0.48703847402
      2.3959635161          -0.39337850312
P    1   1.00
      0.61776161679          1.0000000
P    1   1.00
      0.16993376871          1.0000000
D    1   1.00
      0.5500000              1.0000000
****
Lu     0
S    5   1.00
  95169.767000               0.22000000000D-04
  15488.403000               0.14500000000D-03
   3776.2335000              0.65100000000D-03
   1079.0501000              0.20380000000D-02
    268.95380000             0.51270000000D-02
S    1   1.00
     63.467900000            1.0000000
S    1   1.00
     45.133200000            1.0000000
S    1   1.00
     21.456800000            1.0000000
S    1   1.00
      5.3483000000           1.0000000
S    1   1.00
      2.6778000000           1.0000000
S    1   1.00
      1.0287000000           1.0000000
S    1   1.00
      0.44080000000          1.0000000
S    1   1.00
      0.79100000000D-01      1.0000000
S    1   1.00
      0.31300000000D-01      1.0000000
P    3   1.00
     12.333733920           -0.15313031066
     11.080331415           -0.20300664852
      2.0341747228          -0.19458361263
P    6   1.00
   1500.5317313             -0.10192569555D-02
    382.39748937            -0.59476212135D-02
    132.99969628            -0.16265160929D-01
     46.110032419           -0.35623845839D-01
     15.583529011            0.23709171074
      5.7856677022          -0.30670977844
P    1   1.00
      3.7823361008           1.0000000
P    1   1.00
      1.3682592248           1.0000000
P    1   1.00
      0.57288205601          1.0000000
P    1   1.00
      0.22793165135          1.0000000
P    1   1.00
      0.81403917986D-01      1.0000000
P    1   1.00
      0.29091071778D-01      1.0000000
D    6   1.00
    484.52750000             0.22860000000D-02
    146.66550000             0.18629000000D-01
     56.377900000            0.74088000000D-01
     23.671100000            0.16155400000
      9.4401000000           0.30809100000
      4.3712000000           0.44833400000
D    1   1.00
      1.9580000000           1.0000000
D    1   1.00
      0.72720000000          1.0000000
D    1   1.00
      0.24600000000          1.0000000
D    1   1.00
      0.74400000000D-01      1.0000000
F    5   1.00
    175.15590000             0.41020000000D-02
     62.890900000            0.39086000000D-01
     28.362400000            0.14704400000
     13.247800000            0.27109200000
      6.1440000000           0.34566500000
F    1   1.00
      2.7623000000           1.0000000
F    1   1.00
      1.1574000000           1.0000000
F    1   1.00
      0.42440000000          1.0000000
G    1   1.00
      0.70090000000          1.0000000
****

Lu     0
Lu-ECP     5     28
h potential
  1
2      1.00000000             0.00000000
s-h potential
  1
2     35.16209700           989.99558400
p-h potential
  1
2     19.46440200           278.86565200
d-h potential
  1
2     10.00686500            71.00917800
f-h potential
  1
2     23.51793200           -47.40589000
g-h potential
  1
2     29.41223800           -35.55714600


